9
Lattice="3.249 0.0 0.0 0.0 5.206 0.0 0.0 0.0 22.81371653689564" Properties=species:S:1:pos:R:3:move_mask:L:1:tags:I:1:magmoms:R:1:forces:R:3 spacegroup="_JSON {\"number\": 186, \"setting\": 1}" unit_cell=conventional energy=314.2377008182449 free_energy=314.23770081679174 dipole="-0.017346670464356048 -0.606056307470155 -0.03622373324481465" magmom=0.0 pbc="T T F"
Zn       0.00000000       0.00000000      10.00000000  F        2       0.00000000      -0.00074006     435.43863067      -0.00031028
Zn       0.00000000       2.60300000      10.00000000  F        2       0.00000000       0.00023417     435.43440948       0.00475599
O        0.00000000       1.99129500      10.00000000  F        2       0.00000000       0.00176349    -435.39051518       0.11289179
O       -0.00000000       4.59429500      10.00000000  F        2       0.00000000       0.00134795    -435.43125604       0.09693573
Zn       2.47560938       0.13078857      15.68969160  T        1       0.00000000       0.00568855      -0.01588131       0.01642189
Zn       0.85835616       2.96669479      14.51612273  T        1       0.00000000      -0.01200993      -0.01627827       0.02900519
O        0.84240831       1.07222145      14.69620883  T        1       0.00000000      -0.00013271       0.00354690      -0.00673204
O        2.48158640       3.80293831      14.62438820  T        1       0.00000000       0.01013200      -0.01768795       0.01378267
O        0.85616334       1.04115963      16.30594832  T        0       0.00000000      -0.01028911      -0.02342300      -0.02845568
