11
Lattice="3.249 0.0 0.0 0.0 5.206 0.0 0.0 0.0 22.81371653689564" Properties=species:S:1:pos:R:3:move_mask:L:1:tags:I:1:magmoms:R:1:forces:R:3 spacegroup="_JSON {\"number\": 186, \"setting\": 1}" unit_cell=conventional energy=294.89032713631974 free_energy=294.8902340323187 dipole="-5.1346580286008265 1.5168457860121483 0.009342917303755367" magmom=0.0 pbc="T T F"
Zn       0.00000000       0.00000000      10.00000000  F        2       0.00000000      -0.00185662     435.39608181       0.00487842
Zn       0.00000000       2.60300000      10.00000000  F        2       0.00000000       0.00259009     435.51915906      -0.02348336
O        0.00000000       1.99129500      10.00000000  F        2       0.00000000       0.00640628    -435.52388564       0.07539911
O        0.00000000       4.59429500      10.00000000  F        2       0.00000000       0.00007987    -435.32292348       0.11320643
Zn       1.78063906      -0.13659291      14.10289997  T        1       0.00000000      -0.01885538      -0.01178516       0.00698808
Zn       0.14466633       2.46522459      13.67760500  T        1       0.00000000      -0.01960963      -0.01140303      -0.01357703
O        1.76784682       1.58119249      13.32751881  T        1       0.00000000       0.02095613       0.00931183      -0.00322202
O        3.40304777       4.18839701      14.45739454  T        1       0.00000000       0.02116506       0.00939042      -0.00331525
O        1.11059916      -0.00172275      18.79944208  T        0       0.00000000      -0.00571490      -0.00706627       0.00194305
C        1.59967763       0.56900227      17.90000769  T        0       0.00000000      -0.00556948      -0.00003558       0.00948614
O        2.08911295       1.14637842      17.00237749  T        0       0.00000000      -0.00066763       0.00711117       0.01492813
