11
Lattice="3.249 0.0 0.0 0.0 5.206 0.0 0.0 0.0 22.81371653689564" Properties=species:S:1:pos:R:3:move_mask:L:1:tags:I:1 spacegroup="_JSON {\"number\": 186, \"setting\": 1}" unit_cell=conventional pbc="T T F"
Zn       0.00000000       0.00000000      10.00000000  F        2
Zn       0.00000000       2.60300000      10.00000000  F        2
O        0.00000000       1.99129500      10.00000000  F        2
O        0.00000000       4.59429500      10.00000000  F        2
Zn       1.20072344       0.23225506      14.05371934  T        1
Zn       2.82438062       2.83431100      14.09124214  T        1
O        1.19332358       1.82809786      13.31711672  T        1
O        1.20730709       3.86624508      14.84658779  T        1
O        1.23621994      -0.38101191      18.43628179  T        0
C        1.73397700       0.36310842      17.68205013  T        0
O        2.23201456       1.12621341      16.93935554  T        0
