11
Lattice="3.249 0.0 0.0 0.0 5.206 0.0 0.0 0.0 22.81371653689564" Properties=species:S:1:pos:R:3:move_mask:L:1:tags:I:1:magmoms:R:1:forces:R:3 spacegroup="_JSON {\"number\": 186, \"setting\": 1}" unit_cell=conventional energy=295.4149836255845 free_energy=295.4147227115148 dipole="7.2111427498789356 3.4189329307525074 0.09245218102714774" magmom=0.0 pbc="T T F"
Zn       0.00000000       0.00000000      10.00000000  F        2       0.00000000       0.00316915     435.37190538      -0.03189015
Zn       0.00000000       2.60300000      10.00000000  F        2       0.00000000       0.00079610     435.55524293      -0.02745735
O        0.00000000       1.99129500      10.00000000  F        2       0.00000000       0.00914755    -435.58985066       0.03578315
O       -0.00000000       4.59429500      10.00000000  F        2       0.00000000       0.00721893    -435.30703036       0.09098266
Zn       2.79242512       1.97879433      14.20436087  T        1       0.00000000       0.09486752      -1.62685702       0.13876475
Zn       1.46346388       4.42206057      13.79543096  T        1       0.00000000      -1.01028974       0.43286310      -0.44214595
O        2.93400640       3.50405947      13.14145363  T        1       0.00000000       0.86883063       0.28218224       0.75000241
O        1.18705492       6.09041297      14.61698029  T        1       0.00000000       0.02948817       0.88993470      -0.28746582
O        1.23370524       0.78048441      20.33624664  T        0       0.00000000       0.87907923       0.82377323      -0.08593315
C        1.89628249       1.69010402      19.96727579  T        0       0.00000000       0.02815064      -0.19275092      -0.48805894
O        2.55996630       2.57044013      19.53268642  T        0       0.00000000      -0.90319900      -0.68435115       0.60697368
