11
Lattice="3.249 0.0 0.0 0.0 5.206 0.0 0.0 0.0 22.81371653689564" Properties=species:S:1:pos:R:3:move_mask:L:1:tags:I:1 spacegroup="_JSON {\"number\": 186, \"setting\": 1}" unit_cell=conventional pbc="T T F"
Zn       0.00000000       0.00000000      10.00000000  F        2
Zn       0.00000000       2.60300000      10.00000000  F        2
O        0.00000000       1.99129500      10.00000000  F        2
O        0.00000000       4.59429500      10.00000000  F        2
Zn       1.22993906       0.91314084      14.43056717  T        1
Zn       0.38344227       3.63981221      13.24011785  T        1
O        1.97823862       2.75693413      12.94945601  T        1
O        2.86894697       5.22128492      14.47161889  T        1
O        1.61728629       2.09569077      19.40774618  T        0
C        1.62195149       2.98572787      18.64345895  T        0
O        1.62675831       3.87179026      17.87419113  T        0
