11
Lattice="3.249 0.0 0.0 0.0 5.206 0.0 0.0 0.0 22.81371653689564" Properties=species:S:1:pos:R:3:move_mask:L:1:tags:I:1 spacegroup="_JSON {\"number\": 186, \"setting\": 1}" unit_cell=conventional pbc="T T F"
Zn       0.00000000       0.00000000      10.00000000  F        2
Zn       0.00000000       2.60300000      10.00000000  F        2
O        0.00000000       1.99129500      10.00000000  F        2
O        0.00000000       4.59429500      10.00000000  F        2
Zn       0.85303319       0.69859151      15.35645887  T        1
Zn       1.83085626       3.91634385      13.12880121  T        1
O        1.59275370       2.76066654      11.81888013  T        1
O        2.26745486       5.16629520      14.41945253  T        1
O        1.62508409       2.08841485      19.41027384  T        0
C        1.62357013       2.97789031      18.64641220  T        0
O        1.62295454       3.87225339      17.88564278  T        0
