11
Lattice="3.249 0.0 0.0 0.0 5.206 0.0 0.0 0.0 22.81371653689564" Properties=species:S:1:pos:R:3:move_mask:L:1:tags:I:1 spacegroup="_JSON {\"number\": 186, \"setting\": 1}" unit_cell=conventional pbc="T T F"
Zn       0.00000000       0.00000000      10.00000000  F        2
Zn       0.00000000       2.60300000      10.00000000  F        2
O        0.00000000       1.99129500      10.00000000  F        2
O        0.00000000       4.59429500      10.00000000  F        2
Zn       1.62113429       0.82725825      13.94977282  T        1
Zn       0.03576838       3.43416561      13.51921860  T        1
O        1.65794249       2.55122707      13.18544338  T        1
O        3.24786425       5.16134647      14.27962734  T        1
O        1.22554322       1.97939947      19.36304171  T        0
C        1.64586960       2.71850123      18.55420172  T        0
O        2.06583614       3.45571677      17.74318509  T        0
