11
Lattice="3.249 0.0 0.0 0.0 5.206 0.0 0.0 0.0 22.81371653689564" Properties=species:S:1:pos:R:3:move_mask:L:1:tags:I:1 spacegroup="_JSON {\"number\": 186, \"setting\": 1}" unit_cell=conventional pbc="T T F"
Zn       0.00000000       0.00000000      10.00000000  F        2
Zn       0.00000000       2.60300000      10.00000000  F        2
O        0.00000000       1.99129500      10.00000000  F        2
O        0.00000000       4.59429500      10.00000000  F        2
Zn       0.75363562       0.60707462      15.14620554  T        1
Zn       0.92762782       3.71830433      12.98845002  T        1
O        2.40932877       3.03809046      12.34108328  T        1
O        2.36656158       5.21998436      14.61713931  T        1
O        1.62614930       2.08808701      19.40794901  T        0
C        1.62284417       2.98125786      18.64782761  T        0
O        1.62001692       3.87229410      17.88333792  T        0
