11
Lattice="3.249 0.0 0.0 0.0 5.206 0.0 0.0 0.0 22.81371653689564" Properties=species:S:1:pos:R:3:move_mask:L:1:tags:I:1:magmoms:R:1:forces:R:3 spacegroup="_JSON {\"number\": 186, \"setting\": 1}" unit_cell=conventional energy=294.91064031506187 free_energy=294.91054246395225 dipole="-4.004367753480444 0.6254217740751135 0.004551823901211988" magmom=0.0 pbc="T T F"
Zn       0.00000000       0.00000000      10.00000000  F        2       0.00000000      -0.00149753     435.36081497       0.00389909
Zn       0.00000000       2.60300000      10.00000000  F        2       0.00000000       0.00175520     435.55353307      -0.03090004
O        0.00000000       1.99129500      10.00000000  F        2       0.00000000       0.00464062    -435.58112621       0.06500360
O        0.00000000       4.59429500      10.00000000  F        2       0.00000000      -0.00016245    -435.26700898       0.09800778
Zn       1.73970708       0.08793239      14.10738667  T        1       0.00000000      -0.00005890      -0.00222399       0.00057276
Zn       0.10585979       2.69110249      13.67053073  T        1       0.00000000      -0.00047437      -0.00266086      -0.00081228
O        1.73053695       1.80712392      13.32958339  T        1       0.00000000      -0.00041678      -0.00167323      -0.00038837
O        3.36384433       4.41217317      14.45576279  T        1       0.00000000      -0.00013606      -0.00370040       0.00098868
O        1.18373088       1.94457501      19.04672841  T        0       0.00000000       0.00278813       0.00015346      -0.02506258
C        1.70840118       1.85506453      18.00221263  T        0       0.00000000      -0.00534862      -0.02062667      -0.00561452
O        2.23278278       1.76124976      16.95671785  T        0       0.00000000       0.00394422      -0.04497489      -0.02795267
