9
Lattice="3.249 0.0 0.0 0.0 5.206 0.0 0.0 0.0 22.81371653689564" Properties=species:S:1:pos:R:3:move_mask:L:1:tags:I:1:magmoms:R:1:forces:R:3 spacegroup="_JSON {\"number\": 186, \"setting\": 1}" unit_cell=conventional energy=314.5559277668648 free_energy=314.5176219973253 dipole="-0.3664128607709788 1.9236915938043164 -0.2586418723447347" magmom=0.0 pbc="T T F"
Zn       0.00000000       0.00000000      10.00000000  F        2       0.00000000      -0.00053908     435.08409004       0.07149718
Zn       0.00000000       2.60300000      10.00000000  F        2       0.00000000      -0.00131686     435.14581966       0.07150822
O        0.00000000       1.99129500      10.00000000  F        2       0.00000000       0.00024411    -435.11400703       0.05662946
O       -0.00000000       4.59429500      10.00000000  F        2       0.00000000       0.00070730    -435.06315356       0.04174814
Zn       2.43108140       0.51195132      15.73490701  T        1       0.00000000      -0.01921127       0.00289866       0.01884082
Zn       0.80860020       3.41484347      15.10506757  T        1       0.00000000      -0.02567946       0.01866425       0.00131518
O        0.80525855       1.54446732      15.19851003  T        1       0.00000000       0.01463729      -0.00786639       0.00579779
O        2.43172849       4.04688999      14.40624142  T        1       0.00000000       0.01671766       0.03733224       0.00843751
O        0.80447309       4.81031650      16.54451132  T        0       0.00000000       0.01822163      -0.01516304      -0.01136457
