11
Lattice="3.249 0.0 0.0 0.0 5.206 0.0 0.0 0.0 22.81371653689564" Properties=species:S:1:pos:R:3:move_mask:L:1:tags:I:1 spacegroup="_JSON {\"number\": 186, \"setting\": 1}" unit_cell=conventional pbc="T T F"
Zn       0.00000000       0.00000000      10.00000000  F        2
Zn       0.00000000       2.60300000      10.00000000  F        2
O        0.00000000       1.99129500      10.00000000  F        2
O        0.00000000       4.59429500      10.00000000  F        2
Zn       1.15597870       0.13619290      14.00261414  T        1
Zn       0.43374257       2.73606863      13.95855845  T        1
O        1.93856857       1.74868523      13.53521783  T        1
O        2.90477968       4.35571104      14.43250079  T        1
O        1.24309692      -0.82405917      17.99401705  T        0
C        1.67893627       0.20573499      17.64090500  T        0
O        2.10899361       1.24317985      17.29497309  T        0
