11
Lattice="3.249 0.0 0.0 0.0 5.206 0.0 0.0 0.0 22.81371653689564" Properties=species:S:1:pos:R:3:move_mask:L:1:tags:I:1:momenta:R:3:magmoms:R:1:forces:R:3 spacegroup="_JSON {\"number\": 186, \"setting\": 1}" unit_cell=conventional energy=325.2716306804949 free_energy=325.2716306767047 dipole="-2.5000172077437104 6.07000675703171 0.012653964879447675" magmom=0.0 pbc="T T F"
Zn       0.00000000       0.00000000      10.00000000  F        2       0.00000000       0.00000000       0.00000000       0.00000000      -0.00013553     444.89573149       0.00572186
Zn       0.00000000       2.60300000      10.00000000  F        2       0.00000000       0.00000000       0.00000000       0.00000000      -0.00408236     444.84601519       0.01691781
O        0.00000000       1.99129500      10.00000000  F        2       0.00000000       0.00000000       0.00000000       0.00000000      -0.01205445    -444.84151858       0.34458369
O       -0.00000000       4.59429500      10.00000000  F        2       0.00000000       0.00000000       0.00000000       0.00000000      -0.00122109    -444.91303651       0.43399019
Zn       4.36278567      -0.01488272      14.10835915  T        1      -0.43053206      -2.25173324      -1.47820857       0.00000000      -0.46019747      -0.22100708      -0.08084546
Zn       2.89838493       2.50576218      14.39496434  T        1       0.53204014      -0.28324976       0.92392834       0.00000000      -0.50960894       0.51097180       0.06096783
O        2.72118010       0.73334293      13.78364066  T        1       0.39159812       0.26649094       0.75086763       0.00000000       0.53468689       0.87242143      -0.44190046
O        4.47976012       3.44124989      14.65465782  T        1      -0.77983164      -0.16755595      -0.85127505       0.00000000       0.44796572      -1.13018831       0.03674570
O        0.71450281      -0.27384385      18.72378846  T        0      -0.57732058      -0.30759735      -0.26326879       0.00000000       0.16819228      -0.76207124      -0.09192867
C        0.39710228       0.83252148      18.46025380  T        0      -0.49134949       0.11688405      -0.30129490       0.00000000      -0.16114917       1.06892273       0.13059299
O        0.09490151       1.96768069      18.24440174  T        0       0.10321706      -0.96894535       0.19364998       0.00000000      -0.04743656      -0.32293334      -0.14175287
