12
Lattice="3.249 0.0 0.0 0.0 5.206 0.0 0.0 0.0 22.81371653689564" Properties=species:S:1:pos:R:3:move_mask:L:1:tags:I:1:magmoms:R:1:forces:R:3 spacegroup="_JSON {\"number\": 186, \"setting\": 1}" unit_cell=conventional energy=292.40435546122376 free_energy=292.3980852891082 dipole="-0.08325410893584852 -3.4144283456274067 -0.06681297019197316" magmom=0.0 pbc="T T F"
Zn       0.00000000       0.00000000      10.00000000  F        2       0.00000000      -0.00159933     435.44173868       0.00788192
Zn       0.00000000       2.60300000      10.00000000  F        2       0.00000000       0.00298321     435.46144434       0.00168854
O        0.00000000       1.99129500      10.00000000  F        2       0.00000000       0.00623736    -435.39700629       0.12489066
O       -0.00000000       4.59429500      10.00000000  F        2       0.00000000       0.00531703    -435.44802283       0.09410117
Zn       2.49755344       0.44330749      14.33854806  T        1       0.00000000       0.01546532      -0.03264227       0.00277750
Zn       0.87867283       2.80604120      13.98366374  T        1       0.00000000      -0.00600982      -0.00416930       0.01659653
O        0.92861541       1.15480747      15.54303749  T        1       0.00000000       0.01169082       0.00296059       0.01128079
O        2.50551194       3.81089495      13.86437685  T        1       0.00000000       0.00234725       0.02710120       0.01432788
C        1.19028551       1.55070122      16.81429439  T        0       0.00000000       0.02786042       0.00499274      -0.02114897
O        1.66166112       0.84671593      17.68258689  T        0       0.00000000      -0.00607188       0.03216864       0.01630918
O        0.90169375       2.87321164      16.92741125  T        0       0.00000000      -0.03486781       0.00109233      -0.00734763
H        1.22062346       3.20464967      17.79366961  T        0       0.00000000      -0.01789683      -0.03086651       0.01898452
