11
Lattice="3.249 0.0 0.0 0.0 5.206 0.0 0.0 0.0 22.81371653689564" Properties=species:S:1:pos:R:3:move_mask:L:1:tags:I:1 spacegroup="_JSON {\"number\": 186, \"setting\": 1}" unit_cell=conventional pbc="T T F"
Zn       0.00000000       0.00000000      10.00000000  F        2
Zn       0.00000000       2.60300000      10.00000000  F        2
O        0.00000000       1.99129500      10.00000000  F        2
O        0.00000000       4.59429500      10.00000000  F        2
Zn       1.62861137       0.88483821      15.72304114  T        1
Zn       1.62567778       3.81832328      13.05907507  T        1
O        1.62491425       2.72024025      11.65758296  T        1
O        1.62027008       5.15168405      14.19671739  T        1
O        1.62451519       2.09047812      19.41392147  T        0
C        1.62450433       2.97823985      18.64808794  T        0
O        1.62447279       3.87644249      17.89183400  T        0
