11
Lattice="3.249 0.0 0.0 0.0 5.206 0.0 0.0 0.0 22.81371653689564" Properties=species:S:1:pos:R:3:move_mask:L:1:tags:I:1 spacegroup="_JSON {\"number\": 186, \"setting\": 1}" unit_cell=conventional pbc="T T F"
Zn       0.00000000       0.00000000      10.00000000  F        2
Zn       0.00000000       2.60300000      10.00000000  F        2
O        0.00000000       1.99129500      10.00000000  F        2
O        0.00000000       4.59429500      10.00000000  F        2
Zn       2.33958210       0.80602009      14.08029113  T        1
Zn       0.70963914       3.41470708      13.70476753  T        1
O        2.33336634       2.54155618      13.35206353  T        1
O        0.71469342       5.15091853      14.44360015  T        1
O        1.13084087       1.56826599      19.19159962  T        0
C        1.62810179       2.31367035      18.43449365  T        0
O        2.12514421       3.05928627      17.67654046  T        0
