11
Lattice="3.249 0.0 0.0 0.0 5.206 0.0 0.0 0.0 22.81371653689564" Properties=species:S:1:pos:R:3:move_mask:L:1:tags:I:1 spacegroup="_JSON {\"number\": 186, \"setting\": 1}" unit_cell=conventional pbc="T T F"
Zn       0.00000000       0.00000000      10.00000000  F        2
Zn       0.00000000       2.60300000      10.00000000  F        2
O        0.00000000       1.99129500      10.00000000  F        2
O        0.00000000       4.59429500      10.00000000  F        2
Zn       0.07388014       0.26675205      13.64075842  T        1
Zn       1.71362343       2.87054797      14.10547719  T        1
O        1.69863726       1.15611737      13.31472687  T        1
O        3.33800482       3.76082485      14.44683933  T        1
O        1.19155204       0.36085328      18.62937443  T        0
C        1.70941773       0.85679612      17.70256421  T        0
O        2.22884395       1.35933342      16.77766426  T        0
