11
Lattice="3.249 0.0 0.0 0.0 5.206 0.0 0.0 0.0 22.81371653689564" Properties=species:S:1:pos:R:3:move_mask:L:1:tags:I:1:magmoms:R:1:forces:R:3 spacegroup="_JSON {\"number\": 186, \"setting\": 1}" unit_cell=conventional energy=295.9104924670276 free_energy=295.90999686925073 dipole="2.7955934054219123 -7.694561948033217 0.03127518948982665" magmom=0.0 pbc="T T F"
Zn       0.00000000       0.00000000      10.00000000  F        2       0.00000000       0.00141080     435.26660731       0.01553516
Zn       0.00000000       2.60300000      10.00000000  F        2       0.00000000      -0.00658953     435.64329116      -0.04221409
O        0.00000000       1.99129500      10.00000000  F        2       0.00000000      -0.01746189    -435.71635648       0.03004787
O        0.00000000       4.59429500      10.00000000  F        2       0.00000000      -0.00575017    -435.12945323       0.15987147
Zn       1.23936845       0.17769845      14.04776433  T        1       0.00000000      -0.00195057       0.00160813       0.00211748
Zn       2.85287850       2.77707652      14.07069410  T        1       0.00000000      -0.00238407       0.00025220       0.00060110
O        1.00169836       1.75300622      13.30237241  T        1       0.00000000      -0.01589304      -0.00249864      -0.00159826
O        1.49085468       3.83823576      14.85002435  T        1       0.00000000       0.01520252       0.00606221       0.00454348
O        1.24745813       0.07984779      18.61472760  T        0       0.00000000       0.00673687      -0.04359239       0.01188392
C        1.76611871       0.61979847      17.71459343  T        0       0.00000000       0.01321486      -0.01248369       0.00683642
O        2.28553209       1.17334929      16.81835767  T        0       0.00000000       0.00321252       0.00283168       0.03818062
