11
Lattice="3.249 0.0 0.0 0.0 5.206 0.0 0.0 0.0 22.81371653689564" Properties=species:S:1:pos:R:3:move_mask:L:1:tags:I:1 spacegroup="_JSON {\"number\": 186, \"setting\": 1}" unit_cell=conventional pbc="T T F"
Zn       0.00000000       0.00000000      10.00000000  F        2
Zn       0.00000000       2.60300000      10.00000000  F        2
O        0.00000000       1.99129500      10.00000000  F        2
O        0.00000000       4.59429500      10.00000000  F        2
Zn       1.04983687      -0.45380514      14.08651964  T        1
Zn       2.65460737       2.15225750      13.66122080  T        1
O        1.03207902       1.27291944      13.32594991  T        1
O        2.67351488       3.87316377      14.44034829  T        1
O        1.15085471       1.04292569      19.03387529  T        0
C        1.66630575       1.20115727      17.99277659  T        0
O        2.18146120       1.35608082      16.94978721  T        0
