3
Lattice="17.514 0.0 0.0 0.0 16.586 0.0 0.0 0.0 16.0" Properties=species:S:1:pos:R:3:magmoms:R:1:forces:R:3 energy=-14.036733185187705 free_energy=-14.036733185187707 dipole="2.233901578931843e-11 0.376129124495093 -6.4986783743428856e-15" magmom=0.0 pbc="T T T"
O        8.75700000       7.98844507       8.00000000       0.00000000      -0.00000000       0.02264655      -0.00000000
H        9.52201315       8.59158753       8.00000000       0.00000000       0.01323965      -0.02079322      -0.00000000
H        7.99198685       8.59158753       8.00000000       0.00000000      -0.01323966      -0.02079321      -0.00000000
