11
Lattice="3.249 0.0 0.0 0.0 5.206 0.0 0.0 0.0 22.81371653689564" Properties=species:S:1:pos:R:3:move_mask:L:1:tags:I:1 spacegroup="_JSON {\"number\": 186, \"setting\": 1}" unit_cell=conventional pbc="T T F"
Zn       0.00000000       0.00000000      10.00000000  F        2
Zn       0.00000000       2.60300000      10.00000000  F        2
O        0.00000000       1.99129500      10.00000000  F        2
O        0.00000000       4.59429500      10.00000000  F        2
Zn       2.33832063       0.78353292      14.11732315  T        1
Zn       0.70293683       3.39001174      13.75124837  T        1
O        2.32716721       2.52302296      13.40411123  T        1
O        0.71312746       5.13120290      14.47012145  T        1
O        1.10389244       1.52249394      19.20349342  T        0
C        1.62766214       2.22852465      18.42770545  T        0
O        2.15171570       2.93495428      17.65129280  T        0
