11
Lattice="3.249 0.0 0.0 0.0 5.206 0.0 0.0 0.0 22.81371653689564" Properties=species:S:1:pos:R:3:move_mask:L:1:tags:I:1:magmoms:R:1:forces:R:3 spacegroup="_JSON {\"number\": 186, \"setting\": 1}" unit_cell=conventional energy=295.8936350544743 free_energy=295.89308991623363 dipole="2.5276805468381247 -7.950585944422031 0.020814848344845385" magmom=0.0 pbc="T T F"
Zn       0.00000000       0.00000000      10.00000000  F        2       0.00000000       0.00028052     435.22911271       0.02082083
Zn       0.00000000       2.60300000      10.00000000  F        2       0.00000000      -0.00163642     435.65978842      -0.03459176
O        0.00000000       1.99129500      10.00000000  F        2       0.00000000      -0.00433716    -435.74908488       0.06373542
O        0.00000000       4.59429500      10.00000000  F        2       0.00000000      -0.00133585    -435.08476735       0.15329496
Zn       1.23002659       0.46432144      14.05912802  T        1       0.00000000       0.00304481       0.00795510       0.00681524
Zn       2.85960252       3.06446266      14.08571992  T        1       0.00000000       0.00525329       0.00552247       0.00616714
O        1.49574656       2.03130187      13.30266360  T        1       0.00000000      -0.00179342       0.01054599       0.00800908
O        0.96140747       4.12363181      14.85747431  T        1       0.00000000       0.00143280       0.00965248       0.00823451
O        1.15410783       0.07377520      18.64439086  T        0       0.00000000      -0.00272813      -0.02662852      -0.00162549
C        1.65151766       0.79991084      17.87223998  T        0       0.00000000       0.00897281      -0.01139424      -0.02022008
O        2.14903099       1.53755304      17.10498205  T        0       0.00000000      -0.00111335      -0.02981204      -0.00263668
