11
Lattice="3.249 0.0 0.0 0.0 5.206 0.0 0.0 0.0 22.81371653689564" Properties=species:S:1:pos:R:3:move_mask:L:1:tags:I:1 spacegroup="_JSON {\"number\": 186, \"setting\": 1}" unit_cell=conventional pbc="T T F"
Zn       0.00000000       0.00000000      10.00000000  F        2
Zn       0.00000000       2.60300000      10.00000000  F        2
O        0.00000000       1.99129500      10.00000000  F        2
O        0.00000000       4.59429500      10.00000000  F        2
Zn       0.78855157       1.11802321      13.74704429  T        1
Zn       2.39071811       3.72290110      14.20956720  T        1
O        2.41777083       1.98765556      13.46692538  T        1
O        0.76917495       4.60247658      14.50516625  T        1
O        1.13981318       1.24995388      19.02138603  T        0
C        1.64601175       1.97991322      18.25650218  T        0
O        2.15265277       2.71234232      17.49222042  T        0
