11
Lattice="3.249 0.0 0.0 0.0 5.206 0.0 0.0 0.0 22.81371653689564" Properties=species:S:1:pos:R:3:tags:I:1 spacegroup="_JSON {\"number\": 186, \"setting\": 1}" unit_cell=conventional pbc="T T F"
Zn       0.00000000       0.00000000      10.00000000        2
Zn       0.00000000       2.60300000      10.00000000        2
O        0.00000000       1.99129500      10.00000000        2
O        0.00000000       4.59429500      10.00000000        2
Zn       2.22399749       0.04097083      13.97682271        1
Zn       0.65118612       2.68750129      14.12439814        1
O        1.74688449       1.53352331      13.19099490        1
O        2.48240502       3.69515483      14.80730783        1
O        1.04727785       1.34475935      17.05842679        0
C        1.57119057       0.50611713      17.69357568        0
O        2.09505097      -0.32432271      18.33038369        0
