11
Lattice="3.249 0.0 0.0 0.0 5.206 0.0 0.0 0.0 22.81371653689564" Properties=species:S:1:pos:R:3:tags:I:1 spacegroup="_JSON {\"number\": 186, \"setting\": 1}" unit_cell=conventional pbc="T T F"
Zn       0.00000000       0.00000000      10.00000000        2
Zn       0.00000000       2.60300000      10.00000000        2
O        0.00000000       1.99129500      10.00000000        2
O        0.00000000       4.59429500      10.00000000        2
Zn       2.85936772       0.20433418      13.68080353        1
Zn       1.20603043       2.81655165      14.09825382        1
O        1.23392140       1.08578890      13.34774209        1
O        2.83238199       3.68291174      14.43927508        1
O        1.04494229       2.07756484      18.27231926        0
C        1.58152494       1.10870119      17.88566631        0
O        2.11774090       0.14327628      17.49024838        0
