11
Lattice="3.249 0.0 0.0 0.0 5.206 0.0 0.0 0.0 22.81371653689564" Properties=species:S:1:pos:R:3:move_mask:L:1:tags:I:1 spacegroup="_JSON {\"number\": 186, \"setting\": 1}" unit_cell=conventional pbc="T T F"
Zn       0.00000000       0.00000000      10.00000000  F        2
Zn       0.00000000       2.60300000      10.00000000  F        2
O        0.00000000       1.99129500      10.00000000  F        2
O        0.00000000       4.59429500      10.00000000  F        2
Zn       2.34281645       0.78375870      14.09507964  T        1
Zn       0.71268581       3.39087837      13.73692260  T        1
O        2.33655960       2.52357548      13.38108477  T        1
O        0.71791262       5.13219307      14.45789281  T        1
O        1.11523290       1.53332336      19.18819611  T        0
C        1.62843605       2.26292826      18.42690158  T        0
O        2.14144311       2.99403348      17.66561087  T        0
