11
Lattice="3.249 0.0 0.0 0.0 5.206 0.0 0.0 0.0 22.81371653689564" Properties=species:S:1:pos:R:3:move_mask:L:1:tags:I:1:magmoms:R:1:forces:R:3 spacegroup="_JSON {\"number\": 186, \"setting\": 1}" unit_cell=conventional energy=295.8937969222454 free_energy=295.8932478894642 dipole="2.52045029068809 -7.84690270499569 0.021642454575824945" magmom=0.0 pbc="T T F"
Zn       0.00000000       0.00000000      10.00000000  F        2       0.00000000       0.00030081     435.23030537       0.02043315
Zn       0.00000000       2.60300000      10.00000000  F        2       0.00000000      -0.00163488     435.65884732      -0.03469629
O        0.00000000       1.99129500      10.00000000  F        2       0.00000000      -0.00436143    -435.74778636       0.06347554
O        0.00000000       4.59429500      10.00000000  F        2       0.00000000      -0.00128583    -435.08599915       0.15301738
Zn       1.22779165       0.45382073      14.05951837  T        1       0.00000000       0.00280256       0.00319091       0.00692867
Zn       2.85662861       3.05478977      14.08589203  T        1       0.00000000       0.00452110       0.00147974       0.00623948
O        1.49558281       2.01941209      13.30195672  T        1       0.00000000      -0.00171358       0.00606066       0.00852578
O        0.95912097       4.11273980      14.85726673  T        1       0.00000000       0.00213290       0.00358078       0.00871977
O        1.15360293       0.07019234      18.64418703  T        0       0.00000000      -0.00069853      -0.02483834      -0.00493721
C        1.65023634       0.79780724      17.87267361  T        0       0.00000000       0.00283226      -0.02281684      -0.00804249
O        2.14686049       1.53651864      17.10607032  T        0       0.00000000       0.00072401      -0.02736675      -0.00582569
