11
Lattice="3.249 0.0 0.0 0.0 5.206 0.0 0.0 0.0 22.81371653689564" Properties=species:S:1:pos:R:3:move_mask:L:1:tags:I:1 spacegroup="_JSON {\"number\": 186, \"setting\": 1}" unit_cell=conventional pbc="T T F"
Zn       0.00000000       0.00000000      10.00000000  F        2
Zn       0.00000000       2.60300000      10.00000000  F        2
O        0.00000000       1.99129500      10.00000000  F        2
O        0.00000000       4.59429500      10.00000000  F        2
Zn       0.77777329       1.09009825      13.72766765  T        1
Zn       2.42134412       3.68967502      14.20122910  T        1
O        2.40364457       1.96515104      13.43837277  T        1
O        0.79570342       4.57667073      14.49014964  T        1
O        1.13472837       1.20809607      19.01493718  T        0
C        1.64419660       1.92541205      18.24007709  T        0
O        2.15469445       2.64666916      17.46745615  T        0
