11
Lattice="3.249 0.0 0.0 0.0 5.206 0.0 0.0 0.0 22.81371653689564" Properties=species:S:1:pos:R:3:move_mask:L:1:tags:I:1 spacegroup="_JSON {\"number\": 186, \"setting\": 1}" unit_cell=conventional pbc="T T F"
Zn       0.00000000       0.00000000      10.00000000  F        2
Zn       0.00000000       2.60300000      10.00000000  F        2
O        0.00000000       1.99129500      10.00000000  F        2
O        0.00000000       4.59429500      10.00000000  F        2
Zn       1.22189800       0.63693190      13.89085722  T        1
Zn       2.83106704       3.25514738      13.94128230  T        1
O        1.52705911       2.18679140      13.12728015  T        1
O        0.96748047       4.28674379      14.67745622  T        1
O        1.14602701       0.66936834      18.84173535  T        0
C        1.64716808       1.39463007      18.07005032  T        0
O        2.14744371       2.12406103      17.29776715  T        0
