11
Lattice="3.249 0.0 0.0 0.0 5.206 0.0 0.0 0.0 22.81371653689564" Properties=species:S:1:pos:R:3:move_mask:L:1:tags:I:1:magmoms:R:1:forces:R:3 spacegroup="_JSON {\"number\": 186, \"setting\": 1}" unit_cell=conventional energy=294.90830294553064 free_energy=294.90821845060856 dipole="-3.1846592905418434 0.8369997616951763 0.013100121118498375" magmom=0.0 pbc="T T F"
Zn       0.00000000       0.00000000      10.00000000  F        2       0.00000000      -0.00122362     435.40595907       0.00555656
Zn       0.00000000       2.60300000      10.00000000  F        2       0.00000000       0.00178278     435.50924787      -0.02117773
O        0.00000000       1.99129500      10.00000000  F        2       0.00000000       0.00480960    -435.50791881       0.07535330
O        0.00000000       4.59429500      10.00000000  F        2       0.00000000       0.00022612    -435.33837746       0.11156763
Zn       1.69786292      -0.19240045      14.08946578  T        1       0.00000000       0.02418036      -0.00896244       0.00468850
Zn       0.09873743       2.41054106      13.66284158  T        1       0.00000000      -0.01922341      -0.00755210      -0.01507549
O        1.72127968       1.52937935      13.31906094  T        1       0.00000000      -0.01334729      -0.00265631      -0.01098194
O        3.32446615       4.12993509      14.44712934  T        1       0.00000000       0.01787866      -0.00028380       0.00081896
O        1.15882749       0.49363914      18.79946016  T        0       0.00000000      -0.00075523       0.01650059       0.03351356
C        1.67824601       0.83160363      17.80485250  T        0       0.00000000      -0.01196329      -0.00279754       0.03211490
O        2.19840846       1.17382118      16.81000130  T        0       0.00000000      -0.00028041       0.00187877      -0.00854607
