11
Lattice="3.249 0.0 0.0 0.0 5.206 0.0 0.0 0.0 22.81371653689564" Properties=species:S:1:pos:R:3:move_mask:L:1:tags:I:1 spacegroup="_JSON {\"number\": 186, \"setting\": 1}" unit_cell=conventional pbc="T T F"
Zn       0.00000000       0.00000000      10.00000000  F        2
Zn       0.00000000       2.60300000      10.00000000  F        2
O        0.00000000       1.99129500      10.00000000  F        2
O        0.00000000       4.59429500      10.00000000  F        2
Zn       0.80557215      -0.05780778      14.24659980  T        1
Zn       2.48936437       2.54539865      13.85466981  T        1
O        0.86464760       1.67576460      13.50787111  T        1
O        2.44262901       4.27693270      14.61168786  T        1
O        1.27144118      -0.03311356      18.64510311  T        0
C        1.78770327       0.59404767      17.80077479  T        0
O        2.29923311       1.22870839      16.95620841  T        0
