11
Lattice="3.249 0.0 0.0 0.0 5.206 0.0 0.0 0.0 22.81371653689564" Properties=species:S:1:pos:R:3:move_mask:L:1:tags:I:1 spacegroup="_JSON {\"number\": 186, \"setting\": 1}" unit_cell=conventional pbc="T T F"
Zn       0.00000000       0.00000000      10.00000000  F        2
Zn       0.00000000       2.60300000      10.00000000  F        2
O        0.00000000       1.99129500      10.00000000  F        2
O        0.00000000       4.59429500      10.00000000  F        2
Zn       0.79261864       1.13878670      13.76314494  T        1
Zn       2.37446022       3.74165208      14.22765649  T        1
O        2.41860133       2.01072618      13.48167500  T        1
O        0.75344273       4.62119216      14.51266644  T        1
O        1.14454523       1.26032540      19.02670922  T        0
C        1.64742428       1.99634664      18.26573409  T        0
O        2.15045688       2.73430843      17.50441967  T        0
