11
Lattice="3.249 0.0 0.0 0.0 5.206 0.0 0.0 0.0 22.81371653689564" Properties=species:S:1:pos:R:3:move_mask:L:1:tags:I:1 spacegroup="_JSON {\"number\": 186, \"setting\": 1}" unit_cell=conventional pbc="T T F"
Zn       0.00000000       0.00000000      10.00000000  F        2
Zn       0.00000000       2.60300000      10.00000000  F        2
O        0.00000000       1.99129500      10.00000000  F        2
O        0.00000000       4.59429500      10.00000000  F        2
Zn       2.37038085       0.93507296      14.63003217  T        1
Zn       0.84867102       3.64048519      13.16229143  T        1
O        2.38575910       2.74529430      12.73467012  T        1
O        0.80751921       5.23700755      14.42362408  T        1
O        1.62213487       2.09315250      19.41078200  T        0
C        1.62528807       2.98356725      18.64770485  T        0
O        1.62831046       3.87058195      17.87846470  T        0
