11
Lattice="3.249 0.0 0.0 0.0 5.206 0.0 0.0 0.0 22.81371653689564" Properties=species:S:1:pos:R:3:move_mask:L:1:tags:I:1:momenta:R:3:magmoms:R:1:forces:R:3 spacegroup="_JSON {\"number\": 186, \"setting\": 1}" unit_cell=conventional energy=325.1939532952878 free_energy=325.193953074121 dipole="-4.8064315689274535 0.8939956961390843 0.15410377554057764" magmom=0.0 pbc="T T F"
Zn       0.00000000       0.00000000      10.00000000  F        2       0.00000000       0.00000000       0.00000000       0.00000000      -0.00285535     444.86177558       0.01251664
Zn       0.00000000       2.60300000      10.00000000  F        2       0.00000000       0.00000000       0.00000000       0.00000000       0.00025665     444.88661551       0.01619872
O        0.00000000       1.99129500      10.00000000  F        2       0.00000000       0.00000000       0.00000000       0.00000000       0.00429388    -444.91121762       0.44705138
O       -0.00000000       4.59429500      10.00000000  F        2       0.00000000       0.00000000       0.00000000       0.00000000      -0.01000419    -444.84379181       0.43790711
Zn       2.38791113       0.27369156      15.49139274  T        1       1.31786491       1.48663891      -1.83623036       0.00000000      -0.06408760      -0.12003743      -0.70152788
Zn       0.74967023       2.79437003      14.90652731  T        1      -0.54042350      -0.34530502       1.62995798       0.00000000       0.15873076      -0.23754236      -0.48990022
O        2.38913183       1.89734066      14.37250846  T        1      -0.62508760      -0.89784688      -1.08633620       0.00000000      -0.18307380      -0.12464877       0.87462633
O        0.75847632       4.48841358      15.76131050  T        1      -0.79055241       1.41803241      -0.94258006       0.00000000       0.10197831       0.47810866       0.15399867
O        1.16572695      -1.05692532      19.80483046  T        0      -1.74803680      -1.09750230       0.79586995       0.00000000       0.44802069      -1.02414112       1.10971037
C        0.77521454      -0.06053889      19.32212647  T        0      -0.22667463      -0.23706293      -0.70763570       0.00000000      -0.31916936       0.23751952      -0.81896562
O        0.36240180       0.89151277      18.75122579  T        0      -0.03115268       0.23401884       0.25233363       0.00000000      -0.11171077       0.81613537      -0.35663473
