11
Lattice="3.249 0.0 0.0 0.0 5.206 0.0 0.0 0.0 22.81371653689564" Properties=species:S:1:pos:R:3:move_mask:L:1:tags:I:1:magmoms:R:1:forces:R:3 spacegroup="_JSON {\"number\": 186, \"setting\": 1}" unit_cell=conventional energy=295.8821991466057 free_energy=295.8821988793064 dipole="-2.2872353837979085 -0.18670435857687492 0.0020844147866714486" magmom=0.0 pbc="T T F"
Zn       0.00000000       0.00000000      10.00000000  F        2       0.00000000      -0.00164971     435.31013101       0.01032290
Zn       0.00000000       2.60300000      10.00000000  F        2       0.00000000       0.00275830     435.59223939      -0.03027644
O        0.00000000       1.99129500      10.00000000  F        2       0.00000000       0.00576180    -435.64805873       0.07489018
O       -0.00000000       4.59429500      10.00000000  F        2       0.00000000       0.00162426    -435.19045188       0.14633538
Zn       2.04247043       0.01172874      14.05732563  T        1       0.00000000       0.00453257      -0.04690912       0.00494619
Zn       0.37436413       2.58400069      14.01752277  T        1       0.00000000       0.00394821      -0.03052005      -0.01451612
O        1.77285027       1.58066483      13.29093116  T        1       0.00000000       0.00786230       0.01687054      -0.00648571
O        2.43111776       3.71217176      14.87664091  T        1       0.00000000      -0.00954900       0.00670386      -0.01502263
O        1.10370566       0.94902926      16.75618361  T        0       0.00000000      -0.00548309      -0.01753424       0.04567611
C        1.57800355       0.26267809      17.58501864  T        0       0.00000000      -0.00702650      -0.01195224      -0.02185145
O        2.05191039      -0.40513795      18.42097526  T        0       0.00000000       0.00742417       0.02252850       0.00479139
