11
Lattice="3.249 0.0 0.0 0.0 5.206 0.0 0.0 0.0 22.81371653689564" Properties=species:S:1:pos:R:3:tags:I:1 spacegroup="_JSON {\"number\": 186, \"setting\": 1}" unit_cell=conventional pbc="T T F"
Zn       0.00000000       0.00000000      10.00000000        2
Zn       0.00000000       2.60300000      10.00000000        2
O        0.00000000       1.99129500      10.00000000        2
O        0.00000000       4.59429500      10.00000000        2
Zn       1.69249840       1.13175360      14.25743671        1
Zn       1.39001065       3.74372045      14.36318523        1
O        0.31343815       2.31901466      13.77768416        1
O        2.74305381       4.92304282      14.90695380        1
O        1.33697256       2.27031904      16.87653409        0
C        1.44181109       2.46377637      18.04608519        0
O        1.53439975       2.65706360      19.21231282        0
