11
Lattice="3.249 0.0 0.0 0.0 5.206 0.0 0.0 0.0 22.81371653689564" Properties=species:S:1:pos:R:3:tags:I:1 spacegroup="_JSON {\"number\": 186, \"setting\": 1}" unit_cell=conventional pbc="T T F"
Zn       0.00000000       0.00000000      10.00000000        2
Zn       0.00000000       2.60300000      10.00000000        2
O        0.00000000       1.99129500      10.00000000        2
O        0.00000000       4.59429500      10.00000000        2
Zn       0.68334512       1.50843917      14.89759207        1
Zn       2.17955560       4.12309232      14.44766377        1
O        0.55757151       3.23125047      14.10633209        1
O        2.30217928       5.82916504      15.29986456        1
O        1.74050912       3.02196212      17.15323453        0
C        1.41722193       3.75291697      18.03950934        0
O        1.09207205       4.46810163      18.93023086        0
