11
Lattice="3.249 0.0 0.0 0.0 5.206 0.0 0.0 0.0 22.81371653689564" Properties=species:S:1:pos:R:3:tags:I:1:magmoms:R:1:forces:R:3 spacegroup="_JSON {\"number\": 186, \"setting\": 1}" unit_cell=conventional energy=326.1018129576803 free_energy=326.1018120122705 dipole="-2.3940821141427007 -1.0969263640511386 0.14563829931397337" magmom=0.0 pbc="T T F"
Zn       0.00000000       0.00000000      10.00000000        2       0.00000000       0.00087364     444.68294455       0.02814119
Zn       0.00000000       2.60300000      10.00000000        2       0.00000000       0.00202174     445.09428458      -0.00404532
O        0.00000000       1.99129500      10.00000000        2       0.00000000       0.00637479    -445.21930075       0.41362975
O        0.00000000       4.59429500      10.00000000        2       0.00000000       0.00236108    -444.59736124       0.46395372
Zn       2.04914242       0.71572162      14.20620126        1       0.00000000       0.00687228       0.02432955       0.01245158
Zn       0.47495678       3.38234402      14.34430180        1       0.00000000       0.01898459       0.00140812       0.01482976
O        1.52950803       2.19900892      13.40368759        1       0.00000000       0.01635306       0.01144605      -0.02267006
O        2.30892265       4.36828459      15.06820189        1       0.00000000       0.00394633       0.00956535      -0.00256428
O        1.08526807       1.86564044      16.76584076        0       0.00000000      -0.02382453      -0.00924590       0.06658357
C        1.46153282       1.55900862      17.85364453        0       0.00000000      -0.02853535      -0.00281693      -0.01209363
O        1.83546502       1.26007733      18.93902214        0       0.00000000       0.01210792      -0.03220754       0.04868415
