11
Lattice="3.249 0.0 0.0 0.0 5.206 0.0 0.0 0.0 22.81371653689564" Properties=species:S:1:pos:R:3:tags:I:1 spacegroup="_JSON {\"number\": 186, \"setting\": 1}" unit_cell=conventional pbc="T T F"
Zn       0.00000000       0.00000000      10.00000000        2
Zn       0.00000000       2.60300000      10.00000000        2
O        0.00000000       1.99129500      10.00000000        2
O        0.00000000       4.59429500      10.00000000        2
Zn       2.76107510       0.22503984      13.70725396        1
Zn       1.02491563       2.82772884      14.18555240        1
O        1.13946317       1.13542537      13.28456963        1
O        2.65549403       3.72734872      14.58450733        1
O        1.04262734       1.81859482      17.77177853        0
C        1.60721587       0.77068139      17.78694607        0
O        2.17520729      -0.27532782      17.79779591        0
