11
Lattice="3.249 0.0 0.0 0.0 5.206 0.0 0.0 0.0 22.81371653689564" Properties=species:S:1:pos:R:3:move_mask:L:1:tags:I:1 spacegroup="_JSON {\"number\": 186, \"setting\": 1}" unit_cell=conventional pbc="T T F"
Zn       0.00000000       0.00000000      10.00000000  F        2
Zn       0.00000000       2.60300000      10.00000000  F        2
O        0.00000000       1.99129500      10.00000000  F        2
O        0.00000000       4.59429500      10.00000000  F        2
Zn       1.23693941       0.16240004      14.07669695  T        1
Zn       2.80882828       2.72796984      14.02799340  T        1
O        0.94364437       1.72759959      13.30426600  T        1
O        1.68916380       3.88949189      14.90332767  T        1
O        1.35930290       0.13909168      18.77053981  T        0
C        1.87530795       0.65767538      17.85565015  T        0
O        2.39263427       1.19131177      16.94661977  T        0
