11
Lattice="3.249 0.0 0.0 0.0 5.206 0.0 0.0 0.0 22.81371653689564" Properties=species:S:1:pos:R:3:move_mask:L:1:tags:I:1 spacegroup="_JSON {\"number\": 186, \"setting\": 1}" unit_cell=conventional pbc="T T F"
Zn       0.00000000       0.00000000      10.00000000  F        2
Zn       0.00000000       2.60300000      10.00000000  F        2
O        0.00000000       1.99129500      10.00000000  F        2
O        0.00000000       4.59429500      10.00000000  F        2
Zn       0.08642413       0.29103550      13.64465020  T        1
Zn       1.68479310       2.89369824      14.10784238  T        1
O        1.70854829       1.17841889      13.31741329  T        1
O        3.31199092       3.78654519      14.44949336  T        1
O        1.19119621       0.31667229      18.61659547  T        0
C        1.70862806       0.83131962      17.69984056  T        0
O        2.22746104       1.35387224      16.78574162  T        0
