11
Lattice="3.249 0.0 0.0 0.0 5.206 0.0 0.0 0.0 22.81371653689564" Properties=species:S:1:pos:R:3:move_mask:L:1:tags:I:1 spacegroup="_JSON {\"number\": 186, \"setting\": 1}" unit_cell=conventional pbc="T T F"
Zn       0.00000000       0.00000000      10.00000000  F        2
Zn       0.00000000       2.60300000      10.00000000  F        2
O        0.00000000       1.99129500      10.00000000  F        2
O        0.00000000       4.59429500      10.00000000  F        2
Zn       1.10526365       0.23407906      13.99204619  T        1
Zn       0.42429313       2.83337924      13.96826523  T        1
O        1.91883989       1.83529645      13.54053622  T        1
O        2.86439588       4.43892591      14.42759623  T        1
O        1.24802338      -0.94542501      17.81535927  T        0
C        1.70536471       0.10149905      17.55031557  T        0
O        2.15715832       1.15565900      17.29463777  T        0
