11
Lattice="3.249 0.0 0.0 0.0 5.206 0.0 0.0 0.0 22.81371653689564" Properties=species:S:1:pos:R:3:move_mask:L:1:tags:I:1 spacegroup="_JSON {\"number\": 186, \"setting\": 1}" unit_cell=conventional pbc="T T F"
Zn       0.00000000       0.00000000      10.00000000  F        2
Zn       0.00000000       2.60300000      10.00000000  F        2
O        0.00000000       1.99129500      10.00000000  F        2
O        0.00000000       4.59429500      10.00000000  F        2
Zn       1.06856344      -0.47428835      14.09201331  T        1
Zn       2.69137625       2.13149457      13.66924307  T        1
O        1.06797141       1.25138803      13.33115543  T        1
O        2.69339457       3.85397585      14.44602138  T        1
O        1.14532828       1.15042669      19.03211703  T        0
C        1.66467214       1.24321786      17.98516017  T        0
O        2.18390449       1.33657322      16.93694816  T        0
