2
Lattice="16.0 0.0 0.0 0.0 16.0 0.0 0.0 0.0 17.15" Properties=species:S:1:pos:R:3:magmoms:R:1:forces:R:3 energy=-14.685096200426418 free_energy=-14.685096200426418 dipole="-8.389284372974446e-15 -1.6956510581779148e-15 0.04145160100668703" magmom=0.0 pbc="T T T"
C        8.00000000       8.00000000       8.00557354       0.00000000      -0.00000000      -0.00000000      -0.00041371
O        8.00000000       8.00000000       9.14419458       0.00000000       0.00000000      -0.00000000      -0.00705677
