11
Lattice="3.249 0.0 0.0 0.0 5.206 0.0 0.0 0.0 22.81371653689564" Properties=species:S:1:pos:R:3:move_mask:L:1:tags:I:1:magmoms:R:1:forces:R:3 spacegroup="_JSON {\"number\": 186, \"setting\": 1}" unit_cell=conventional energy=325.0728706882346 free_energy=325.07287068321835 dipole="1.2287674007100622 5.280665232540317 0.009497922614189086" magmom=0.0 pbc="T T F"
Zn       0.00000000       0.00000000      10.00000000  F        2       0.00000000      -0.00096156     444.68553865       0.02672161
Zn       0.00000000       2.60300000      10.00000000  F        2       0.00000000       0.00600203     445.17321017      -0.10424093
O        0.00000000       1.99129500      10.00000000  F        2       0.00000000       0.02793712    -445.27647625       0.29630469
O        0.00000000       4.59429500      10.00000000  F        2       0.00000000      -0.00410631    -444.56696569       0.46107163
Zn       0.99440825       1.12604923      13.63300607  T        1       0.00000000      -0.07123300      -0.00596088      -0.02233227
Zn       2.42095699       3.72125701      14.02834660  T        1       0.00000000       0.05917135      -0.00495467       0.01089315
O        2.61019633       2.00057944      13.25126106  T        1       0.00000000      -0.06171439      -0.01381891      -0.00569245
O        0.80420023       4.60293896      14.38767917  T        1       0.00000000       0.05070275      -0.01361103       0.00024646
O        1.35147334       1.69183594      17.33567761  T        0       0.00000000      -0.00562388       0.02973587      -0.02057062
C        1.73952633       0.79694982      18.01842336  T        0       0.00000000       0.01503506      -0.03538708       0.00395960
O        2.12770906      -0.09279457      18.70651091  T        0       0.00000000      -0.00981495       0.00947048      -0.04315802
