11
Lattice="3.249 0.0 0.0 0.0 5.206 0.0 0.0 0.0 22.81371653689564" Properties=species:S:1:pos:R:3:move_mask:L:1:tags:I:1 spacegroup="_JSON {\"number\": 186, \"setting\": 1}" unit_cell=conventional pbc="T T F"
Zn       0.00000000       0.00000000      10.00000000  F        2
Zn       0.00000000       2.60300000      10.00000000  F        2
O        0.00000000       1.99129500      10.00000000  F        2
O        0.00000000       4.59429500      10.00000000  F        2
Zn       1.79577479       0.68459602      13.86951413  T        1
Zn       1.48025331       3.28987075      13.83515529  T        1
O        2.85465162       2.13045190      13.40670844  T        1
O        0.42891313       4.73332996      14.34027201  T        1
O        1.75624355       1.77541113      17.44843017  T        0
C        1.73327127       0.69322156      17.97475404  T        0
O        1.71023562      -0.38633552      18.50153083  T        0
