11
Lattice="3.249 0.0 0.0 0.0 5.206 0.0 0.0 0.0 22.81371653689564" Properties=species:S:1:pos:R:3:move_mask:L:1:tags:I:1 spacegroup="_JSON {\"number\": 186, \"setting\": 1}" unit_cell=conventional pbc="T T F"
Zn       0.00000000       0.00000000      10.00000000  F        2
Zn       0.00000000       2.60300000      10.00000000  F        2
O        0.00000000       1.99129500      10.00000000  F        2
O        0.00000000       4.59429500      10.00000000  F        2
Zn       2.63953933       1.18565439      14.19107270  T        1
Zn       1.13264436       3.80477591      13.81041758  T        1
O        2.75213936       2.92657349      13.44715233  T        1
O        1.02054368       5.52983586      14.59729877  T        1
O        1.25245086       0.13630534      18.87148708  T        0
C        1.82586696       1.17598941      18.89205146  T        0
O        2.39821862       2.21666448      18.92693319  T        0
