11
Lattice="3.249 0.0 0.0 0.0 5.206 0.0 0.0 0.0 22.81371653689564" Properties=species:S:1:pos:R:3:move_mask:L:1:tags:I:1 spacegroup="_JSON {\"number\": 186, \"setting\": 1}" unit_cell=conventional pbc="T T F"
Zn       0.00000000       0.00000000      10.00000000  F        2
Zn       0.00000000       2.60300000      10.00000000  F        2
O        0.00000000       1.99129500      10.00000000  F        2
O        0.00000000       4.59429500      10.00000000  F        2
Zn       1.10903040       0.22945784      13.99580499  T        1
Zn       0.42329613       2.82863586      13.96665464  T        1
O        1.91909166       1.83143380      13.54049906  T        1
O        2.86690748       4.43535817      14.42910924  T        1
O        1.24769390      -0.94943404      17.83472140  T        0
C        1.70292546       0.09709969      17.56351392  T        0
O        2.15223999       1.15026887      17.30032149  T        0
