11
Lattice="3.249 0.0 0.0 0.0 5.206 0.0 0.0 0.0 22.81371653689564" Properties=species:S:1:pos:R:3:move_mask:L:1:tags:I:1:magmoms:R:1:forces:R:3 spacegroup="_JSON {\"number\": 186, \"setting\": 1}" unit_cell=conventional energy=295.8811768503479 free_energy=295.88117619634176 dipole="2.4333536293614673 -3.3921280690840563 0.013902081557629717" magmom=0.0 pbc="T T F"
Zn       0.00000000       0.00000000      10.00000000  F        2       0.00000000       0.00106640     435.27144818       0.01416658
Zn       0.00000000       2.60300000      10.00000000  F        2       0.00000000      -0.00212216     435.63057712      -0.03393673
O        0.00000000       1.99129500      10.00000000  F        2       0.00000000      -0.00575431    -435.70437841       0.06854325
O       -0.00000000       4.59429500      10.00000000  F        2       0.00000000      -0.00067385    -435.13408977       0.15221008
Zn       1.21512904       0.18530371      14.04426440  T        1       0.00000000      -0.00250718      -0.00190419      -0.00711810
Zn       2.85662101       2.77391797      14.06257925  T        1       0.00000000       0.01170438       0.01751202      -0.00202204
O        1.48783537       1.75361596      13.29109492  T        1       0.00000000      -0.01471615       0.00092999       0.00586174
O        0.90474840       3.86250900      14.85700671  T        1       0.00000000       0.00999248       0.00329180       0.00958460
O        1.14033520      -0.44830416      18.30118744  T        0       0.00000000      -0.01019257      -0.01803504       0.00857798
C        1.64807286       0.33090861      17.59249463  T        0       0.00000000       0.01458958       0.01024439       0.01421074
O        2.15689735       1.13077467      16.89757943  T        0       0.00000000       0.00513810       0.01618568      -0.01801509
