11
Lattice="3.249 0.0 0.0 0.0 5.206 0.0 0.0 0.0 22.81371653689564" Properties=species:S:1:pos:R:3:move_mask:L:1:tags:I:1:magmoms:R:1:forces:R:3 spacegroup="_JSON {\"number\": 186, \"setting\": 1}" unit_cell=conventional energy=294.8930083648542 free_energy=294.89300834669507 dipole="-5.132209116534927 5.78392733844355 0.00829708926525103" magmom=0.0 pbc="T T F"
Zn       0.00000000       0.00000000      10.00000000  F        2       0.00000000      -0.00195715     435.42948218       0.00603290
Zn       0.00000000       2.60300000      10.00000000  F        2       0.00000000       0.00298356     435.48623993      -0.01589586
O        0.00000000       1.99129500      10.00000000  F        2       0.00000000       0.00633358    -435.47092087       0.07590658
O       -0.00000000       4.59429500      10.00000000  F        2       0.00000000       0.00105672    -435.37569713       0.10968058
Zn       1.79254920      -0.28035674      14.11521056  T        1       0.00000000       0.01556351       0.03325331      -0.02174079
Zn       0.16113270       2.32594310      13.64907297  T        1       0.00000000      -0.00733996      -0.01604709      -0.00009206
O        1.78543127       1.43865078      13.32414354  T        1       0.00000000       0.00074669      -0.04766115       0.00887197
O        3.41800770       4.03727443      14.45323214  T        1       0.00000000      -0.01339160       0.00316062      -0.00421290
O        1.23762988       1.94175055      18.83721900  T        0       0.00000000      -0.00118560       0.01758087      -0.01116462
C        1.76269358       1.53879546      17.87004737  T        0       0.00000000      -0.01405733       0.01116700       0.02958544
O        2.28951457       1.13076856      16.90444899  T        0       0.00000000       0.00332923       0.01074167      -0.00067956
