11
Lattice="3.249 0.0 0.0 0.0 5.206 0.0 0.0 0.0 22.81371653689564" Properties=species:S:1:pos:R:3:move_mask:L:1:tags:I:1:magmoms:R:1:forces:R:3 spacegroup="_JSON {\"number\": 186, \"setting\": 1}" unit_cell=conventional energy=300.2002535067912 free_energy=300.17555696208154 dipole="-0.0006167123132097894 3.2780515795433294 -0.0708224594359277" magmom=0.0 pbc="T T F"
Zn       0.00000000       0.00000000      10.00000000  F        2       0.00000000      -0.00002074     435.96351089      -0.26983679
Zn       0.00000000       2.60300000      10.00000000  F        2       0.00000000       0.00011263     434.85285922       1.20787227
O        0.00000000       1.99129500      10.00000000  F        2       0.00000000      -0.00012073    -435.01484600      -0.90733116
O       -0.00000000       4.59429500      10.00000000  F        2       0.00000000      -0.00001516    -435.70104536       0.22577989
Zn       1.62423120       0.88118567      15.72513024  T        1       0.00000000      -0.00045249      -0.03591604       0.00525207
Zn       1.62442920       3.81834141      13.05943759  T        1       0.00000000      -0.00013863      -0.00928128      -0.01517467
O        1.62440428       2.71832057      11.65692438  F        1       0.00000000      -0.00015175       0.02907667       0.00692669
O        1.62496038       5.15349907      14.19555805  T        1       0.00000000       0.00089399      -0.01554499       0.00409507
O        1.62448790       2.09091693      19.41518884  T        0       0.00000000      -0.00001349      -0.01074342       0.00222634
C        1.62449994       2.97630691      18.64659451  T        0       0.00000000       0.00000677       0.00232469       0.04262735
O        1.62451427       3.87693070      17.89344570  T        0       0.00000000       0.00000999       0.00106541      -0.02559021
