11
Lattice="3.249 0.0 0.0 0.0 5.206 0.0 0.0 0.0 22.81371653689564" Properties=species:S:1:pos:R:3:move_mask:L:1:tags:I:1 spacegroup="_JSON {\"number\": 186, \"setting\": 1}" unit_cell=conventional pbc="T T F"
Zn       0.00000000       0.00000000      10.00000000  F        2
Zn       0.00000000       2.60300000      10.00000000  F        2
O        0.00000000       1.99129500      10.00000000  F        2
O        0.00000000       4.59429500      10.00000000  F        2
Zn       1.60173833       0.87219961      15.72878680  T        1
Zn       1.61871066       3.82071750      13.05735589  T        1
O        1.61919388       2.72052238      11.65672297  T        1
O        1.66170909       5.15521989      14.19363812  T        1
O        1.62438794       2.08962942      19.41628735  T        0
C        1.62449791       2.97500806      18.64801834  T        0
O        1.62475626       3.87351848      17.89179419  T        0
