11
Lattice="3.249 0.0 0.0 0.0 5.206 0.0 0.0 0.0 22.81371653689564" Properties=species:S:1:pos:R:3:move_mask:L:1:tags:I:1 spacegroup="_JSON {\"number\": 186, \"setting\": 1}" unit_cell=conventional pbc="T T F"
Zn       0.00000000       0.00000000      10.00000000  F        2
Zn       0.00000000       2.60300000      10.00000000  F        2
O        0.00000000       1.99129500      10.00000000  F        2
O        0.00000000       4.59429500      10.00000000  F        2
Zn       0.89548763       0.63577938      15.30084264  T        1
Zn       0.79148327       3.66400249      12.94353206  T        1
O        2.30581863       3.04187644      12.27558354  T        1
O        2.41434200       5.25287774      14.56797412  T        1
O        1.62536819       2.08779276      19.41148940  T        0
C        1.62352636       2.98058635      18.65068270  T        0
O        1.62226162       3.87290592      17.88791280  T        0
