11
Lattice="3.249 0.0 0.0 0.0 5.206 0.0 0.0 0.0 22.81371653689564" Properties=species:S:1:pos:R:3:move_mask:L:1:tags:I:1 spacegroup="_JSON {\"number\": 186, \"setting\": 1}" unit_cell=conventional pbc="T T F"
Zn       0.00000000       0.00000000      10.00000000  F        2
Zn       0.00000000       2.60300000      10.00000000  F        2
O        0.00000000       1.99129500      10.00000000  F        2
O        0.00000000       4.59429500      10.00000000  F        2
Zn       1.70024574       0.41203577      14.09771986  T        1
Zn       0.07109239       3.01638296      13.68439262  T        1
O        1.69568076       2.13693985      13.33470845  T        1
O        3.32459231       4.74507053      14.44957624  T        1
O        1.17172348       1.93238806      19.35257509  T        0
C        1.68054992       2.22994970      18.33843187  T        0
O        2.18993803       2.52629911      17.32348549  T        0
