11
Lattice="3.249 0.0 0.0 0.0 5.206 0.0 0.0 0.0 22.81371653689564" Properties=species:S:1:pos:R:3:move_mask:L:1:tags:I:1 spacegroup="_JSON {\"number\": 186, \"setting\": 1}" unit_cell=conventional pbc="T T F"
Zn       0.00000000       0.00000000      10.00000000  F        2
Zn       0.00000000       2.60300000      10.00000000  F        2
O        0.00000000       1.99129500      10.00000000  F        2
O        0.00000000       4.59429500      10.00000000  F        2
Zn       0.86932305       0.63020201      15.28940299  T        1
Zn       0.79005332       3.64606065      12.93741683  T        1
O        2.32363976       3.04783901      12.30703474  T        1
O        2.41079729       5.27407486      14.59999113  T        1
O        1.62562330       2.08769414      19.41131315  T        0
C        1.62330946       2.98070678      18.65112345  T        0
O        1.62151770       3.87311242      17.88801050  T        0
