11
Lattice="3.249 0.0 0.0 0.0 5.206 0.0 0.0 0.0 22.81371653689564" Properties=species:S:1:pos:R:3:move_mask:L:1:tags:I:1 spacegroup="_JSON {\"number\": 186, \"setting\": 1}" unit_cell=conventional pbc="T T F"
Zn       0.00000000       0.00000000      10.00000000  F        2
Zn       0.00000000       2.60300000      10.00000000  F        2
O        0.00000000       1.99129500      10.00000000  F        2
O        0.00000000       4.59429500      10.00000000  F        2
Zn       1.59995878       0.86957600      15.72675848  T        1
Zn       1.61641658       3.82215400      13.05811518  T        1
O        1.61565004       2.72438986      11.65853699  T        1
O        1.67079015       5.15257698      14.19508389  T        1
O        1.62432845       2.08953781      19.41658332  T        0
C        1.62455625       2.97495845      18.64803104  T        0
O        1.62487917       3.87318946      17.89184111  T        0
