11
Lattice="3.249 0.0 0.0 0.0 5.206 0.0 0.0 0.0 22.81371653689564" Properties=species:S:1:pos:R:3:move_mask:L:1:tags:I:1 spacegroup="_JSON {\"number\": 186, \"setting\": 1}" unit_cell=conventional pbc="T T F"
Zn       0.00000000       0.00000000      10.00000000  F        2
Zn       0.00000000       2.60300000      10.00000000  F        2
O        0.00000000       1.99129500      10.00000000  F        2
O        0.00000000       4.59429500      10.00000000  F        2
Zn       1.69921755       0.42562980      14.09915340  T        1
Zn       0.06971208       3.03002058      13.68553696  T        1
O        1.69432403       2.15006408      13.33570437  T        1
O        3.32353321       4.75906221      14.45054568  T        1
O        1.17117114       1.93280996      19.35944811  T        0
C        1.67940057       2.22939358      18.34459552  T        0
O        2.18794075       2.52467898      17.32902609  T        0
