11
Lattice="3.249 0.0 0.0 0.0 5.206 0.0 0.0 0.0 22.81371653689564" Properties=species:S:1:pos:R:3:move_mask:L:1:tags:I:1 spacegroup="_JSON {\"number\": 186, \"setting\": 1}" unit_cell=conventional pbc="T T F"
Zn       0.00000000       0.00000000      10.00000000  F        2
Zn       0.00000000       2.60300000      10.00000000  F        2
O        0.00000000       1.99129500      10.00000000  F        2
O        0.00000000       4.59429500      10.00000000  F        2
Zn       1.15619109       0.13572138      14.00273997  T        1
Zn       0.43377788       2.73559244      13.95859728  T        1
O        1.93865630       1.74828493      13.53529247  T        1
O        2.90493277       4.35528350      14.43256332  T        1
O        1.24309286      -0.82262584      17.99507163  T        0
C        1.67882307       0.20702672      17.64140442  T        0
O        2.10878307       1.24435810      17.29494078  T        0
