11
Lattice="3.249 0.0 0.0 0.0 5.206 0.0 0.0 0.0 22.81371653689564" Properties=species:S:1:pos:R:3:move_mask:L:1:tags:I:1 spacegroup="_JSON {\"number\": 186, \"setting\": 1}" unit_cell=conventional pbc="T T F"
Zn       0.00000000       0.00000000      10.00000000  F        2
Zn       0.00000000       2.60300000      10.00000000  F        2
O        0.00000000       1.99129500      10.00000000  F        2
O        0.00000000       4.59429500      10.00000000  F        2
Zn       0.71563422      -0.02955047      14.19843268  T        1
Zn       2.61610388       2.57621257      13.90031205  T        1
O        0.95802618       1.69380918      13.47297450  T        1
O        2.30121362       4.25880887      14.65363980  T        1
O        1.24114153       0.07344557      18.63031082  T        0
C        1.76556614       0.63835302      17.74791687  T        0
O        2.28807153       1.21178039      16.86788603  T        0
