11
Lattice="3.249 0.0 0.0 0.0 5.206 0.0 0.0 0.0 22.81371653689564" Properties=species:S:1:pos:R:3:move_mask:L:1:tags:I:1 spacegroup="_JSON {\"number\": 186, \"setting\": 1}" unit_cell=conventional pbc="T T F"
Zn       0.00000000       0.00000000      10.00000000  F        2
Zn       0.00000000       2.60300000      10.00000000  F        2
O        0.00000000       1.99129500      10.00000000  F        2
O        0.00000000       4.59429500      10.00000000  F        2
Zn       1.70523899      -0.20850516      14.09031831  T        1
Zn       0.10415439       2.39464865      13.65884198  T        1
O        1.72679328       1.51365394      13.31764936  T        1
O        3.33169059       4.11188287      14.44729182  T        1
O        1.16217631       0.64595244      18.81515397  T        0
C        1.68368947       0.91295156      17.80010449  T        0
O        2.20617151       1.17877857      16.78311146  T        0
