11
Lattice="3.249 0.0 0.0 0.0 5.206 0.0 0.0 0.0 22.81371653689564" Properties=species:S:1:pos:R:3:move_mask:L:1:tags:I:1 spacegroup="_JSON {\"number\": 186, \"setting\": 1}" unit_cell=conventional pbc="T T F"
Zn       0.00000000       0.00000000      10.00000000  F        2
Zn       0.00000000       2.60300000      10.00000000  F        2
O        0.00000000       1.99129500      10.00000000  F        2
O        0.00000000       4.59429500      10.00000000  F        2
Zn       1.62333637       0.82931417      13.94994361  T        1
Zn       0.03148596       3.43602978      13.51750980  T        1
O        1.65403451       2.55285214      13.18349461  T        1
O        3.24970148       5.16293572      14.27926177  T        1
O        1.22332192       1.97934338      19.36244529  T        0
C        1.64583600       2.71741993      18.55401111  T        0
O        2.06808651       3.45388943      17.74326333  T        0
