11
Lattice="3.249 0.0 0.0 0.0 5.206 0.0 0.0 0.0 22.81371653689564" Properties=species:S:1:pos:R:3:move_mask:L:1:tags:I:1 spacegroup="_JSON {\"number\": 186, \"setting\": 1}" unit_cell=conventional pbc="T T F"
Zn       0.00000000       0.00000000      10.00000000  F        2
Zn       0.00000000       2.60300000      10.00000000  F        2
O        0.00000000       1.99129500      10.00000000  F        2
O        0.00000000       4.59429500      10.00000000  F        2
Zn       1.70088546       0.40268613      14.09632179  T        1
Zn       0.07198890       3.00707585      13.68278023  T        1
O        1.69655604       2.12812313      13.33378683  T        1
O        3.32524082       4.73540102      14.44861352  T        1
O        1.17149926       1.93153274      19.34660013  T        0
C        1.68110506       2.23030351      18.33293492  T        0
O        2.19132342       2.52778427      17.31901208  T        0
