11
Lattice="3.249 0.0 0.0 0.0 5.206 0.0 0.0 0.0 22.81371653689564" Properties=species:S:1:pos:R:3:move_mask:L:1:tags:I:1 spacegroup="_JSON {\"number\": 186, \"setting\": 1}" unit_cell=conventional pbc="T T F"
Zn       0.00000000       0.00000000      10.00000000  F        2
Zn       0.00000000       2.60300000      10.00000000  F        2
O        0.00000000       1.99129500      10.00000000  F        2
O        0.00000000       4.59429500      10.00000000  F        2
Zn       0.08624854       0.29135230      13.64470027  T        1
Zn       1.68429149       2.89404403      14.10778924  T        1
O        1.70833165       1.17878757      13.31748816  T        1
O        3.31158409       3.78687516      14.44945647  T        1
O        1.19110720       0.31634063      18.61757965  T        0
C        1.70814154       0.83102421      17.70125178  T        0
O        2.22699012       1.35396930      16.78676432  T        0
