11
Lattice="3.249 0.0 0.0 0.0 5.206 0.0 0.0 0.0 22.81371653689564" Properties=species:S:1:pos:R:3:move_mask:L:1:tags:I:1 spacegroup="_JSON {\"number\": 186, \"setting\": 1}" unit_cell=conventional pbc="T T F"
Zn       0.00000000       0.00000000      10.00000000  F        2
Zn       0.00000000       2.60300000      10.00000000  F        2
O        0.00000000       1.99129500      10.00000000  F        2
O        0.00000000       4.59429500      10.00000000  F        2
Zn       1.69933298      -0.19397249      14.08967182  T        1
Zn       0.09849743       2.40899065      13.66225978  T        1
O        1.72114277       1.52776611      13.31893659  T        1
O        3.32582792       4.12807748      14.44707776  T        1
O        1.15969913       0.49878613      18.80188634  T        0
C        1.67886663       0.83398134      17.80625360  T        0
O        2.19866998       1.17343366      16.81042208  T        0
