11
Lattice="3.249 0.0 0.0 0.0 5.206 0.0 0.0 0.0 22.81371653689564" Properties=species:S:1:pos:R:3:move_mask:L:1:tags:I:1 spacegroup="_JSON {\"number\": 186, \"setting\": 1}" unit_cell=conventional pbc="T T F"
Zn       0.00000000       0.00000000      10.00000000  F        2
Zn       0.00000000       2.60300000      10.00000000  F        2
O        0.00000000       1.99129500      10.00000000  F        2
O        0.00000000       4.59429500      10.00000000  F        2
Zn       0.80644460      -0.05704062      14.24605312  T        1
Zn       2.49239281       2.54606199      13.85552260  T        1
O        0.86724581       1.67643204      13.50739732  T        1
O        2.44268934       4.27708398      14.61254181  T        1
O        1.27140373      -0.03382726      18.64584050  T        0
C        1.78779061       0.59267741      17.80142399  T        0
O        2.29963333       1.22687613      16.95642614  T        0
