11
Lattice="3.249 0.0 0.0 0.0 5.206 0.0 0.0 0.0 22.81371653689564" Properties=species:S:1:pos:R:3:move_mask:L:1:tags:I:1 spacegroup="_JSON {\"number\": 186, \"setting\": 1}" unit_cell=conventional pbc="T T F"
Zn       0.00000000       0.00000000      10.00000000  F        2
Zn       0.00000000       2.60300000      10.00000000  F        2
O        0.00000000       1.99129500      10.00000000  F        2
O        0.00000000       4.59429500      10.00000000  F        2
Zn       1.06522054      -0.46939804      14.09176021  T        1
Zn       2.68789112       2.13634533      13.66906691  T        1
O        1.06445085       1.25662242      13.33113252  T        1
O        2.68999403       3.85853963      14.44603546  T        1
O        1.14703217       1.14658759      19.03131066  T        0
C        1.66640432       1.24151435      17.98467830  T        0
O        2.18573734       1.33724078      16.93666891  T        0
