11
Lattice="3.249 0.0 0.0 0.0 5.206 0.0 0.0 0.0 22.81371653689564" Properties=species:S:1:pos:R:3:move_mask:L:1:tags:I:1:magmoms:R:1:forces:R:3 spacegroup="_JSON {\"number\": 186, \"setting\": 1}" unit_cell=conventional energy=295.9127205795914 free_energy=295.912446209185 dipole="2.8768651128539298 -8.988457707932964 -0.01578803272475092" magmom=0.0 pbc="T T F"
Zn       0.00000000       0.00000000      10.00000000  F        2       0.00000000       0.00249708     435.27969957       0.00530687
Zn       0.00000000       2.60300000      10.00000000  F        2       0.00000000      -0.00694974     435.63525415      -0.05311778
O        0.00000000       1.99129500      10.00000000  F        2       0.00000000      -0.01774194    -435.69792199       0.02867001
O        0.00000000       4.59429500      10.00000000  F        2       0.00000000      -0.00447778    -435.15273660       0.15571158
Zn       1.23886983       0.16299050      14.07704568  T        1       0.00000000      -0.01654996      -0.01325113       0.00942518
Zn       2.81197840       2.72917330      14.02952601  T        1       0.00000000      -0.03029491      -0.03223141      -0.03475493
O        0.94774755       1.72870395      13.30538459  T        1       0.00000000       0.08864421       0.01281025       0.02171699
O        1.68459944       3.88717301      14.90212859  T        1       0.00000000      -0.04392326      -0.01316007      -0.00038404
O        1.35821537       0.13331547      18.77333642  T        0       0.00000000       0.01264949       0.02426686       0.01815583
C        1.87254912       0.65317047      17.85828878  T        0       0.00000000       0.01305266       0.01041749       0.00268539
O        2.38798238       1.18787847      16.94869181  T        0       0.00000000       0.00356486      -0.02575204      -0.00110038
