11
Lattice="3.249 0.0 0.0 0.0 5.206 0.0 0.0 0.0 22.81371653689564" Properties=species:S:1:pos:R:3:tags:I:1 spacegroup="_JSON {\"number\": 186, \"setting\": 1}" unit_cell=conventional pbc="T T F"
Zn       0.00000000       0.00000000      10.00000000        2
Zn       0.00000000       2.60300000      10.00000000        2
O        0.00000000       1.99129500      10.00000000        2
O        0.00000000       4.59429500      10.00000000        2
Zn       2.65353645       0.19530475      13.85690607        1
Zn       0.78858591       2.79858945      14.21114263        1
O        1.19149869       1.20981443      13.33546460        1
O        2.48002855       3.71947876      14.68379697        1
O        1.04570098       1.33734462      17.04083960        0
C        1.57222179       0.50670128      17.68306655        0
O        2.09698439      -0.31620441      18.32999813        0
