11
Lattice="3.249 0.0 0.0 0.0 5.206 0.0 0.0 0.0 22.81371653689564" Properties=species:S:1:pos:R:3:tags:I:1 spacegroup="_JSON {\"number\": 186, \"setting\": 1}" unit_cell=conventional pbc="T T F"
Zn       0.00000000       0.00000000      10.00000000        2
Zn       0.00000000       2.60300000      10.00000000        2
O        0.00000000       1.99129500      10.00000000        2
O        0.00000000       4.59429500      10.00000000        2
Zn       2.75879717       0.21925847      13.70073232        1
Zn       1.09240410       2.83362552      14.17177270        1
O        1.13166108       1.10729230      13.41440436        1
O        2.71831086       3.70826621      14.47436078        1
O        1.04751522       1.87788926      17.65654269        0
C        1.58023954       0.84072574      17.79592330        0
O        2.11413715      -0.19398000      17.92953054        0
