11
Lattice="3.249 0.0 0.0 0.0 5.206 0.0 0.0 0.0 22.81371653689564" Properties=species:S:1:pos:R:3:tags:I:1:magmoms:R:1:forces:R:3 spacegroup="_JSON {\"number\": 186, \"setting\": 1}" unit_cell=conventional energy=294.91255331322816 free_energy=294.91245679712284 dipole="5.8589787792852634 -3.6765607390809825 -0.011677633324930466" magmom=0.0 pbc="T T F"
Zn       0.00000000       0.00000000      10.00000000        2       0.00000000      -0.00193202     435.31597962       0.00775613
Zn       0.00000000       2.60300000      10.00000000        2       0.00000000      -0.00034968     435.58837970      -0.02107756
O        0.00000000       1.99129500      10.00000000        2       0.00000000      -0.00485422    -435.63262410       0.10663657
O        0.00000000       4.59429500      10.00000000        2       0.00000000      -0.00834781    -435.21894035       0.10636220
Zn       2.96386772       0.19738778      13.67652344        1       0.00000000      -0.00494668      -0.00720080       0.00378974
Zn       1.32432699       2.80636225      14.08018739        1       0.00000000       0.00940971      -0.01314759       0.00137857
O        1.33893296       1.07592965      13.32918321        1       0.00000000       0.00176425      -0.00616918       0.00078340
O        2.94977531       3.67481865      14.43990915        1       0.00000000       0.01175388      -0.00406629       0.00485157
O        1.07058231       2.09475783      18.76348558        0       0.00000000       0.01161078       0.01307829       0.03447474
C        1.58362757       1.35609525      18.01068271        0       0.00000000      -0.00603047       0.01192914       0.04389181
O        2.09612477       0.61476600      17.25875517        0       0.00000000      -0.01042046      -0.00532130       0.02775613
