11
Lattice="3.249 0.0 0.0 0.0 5.206 0.0 0.0 0.0 22.81371653689564" Properties=species:S:1:pos:R:3:move_mask:L:1:tags:I:1 spacegroup="_JSON {\"number\": 186, \"setting\": 1}" unit_cell=conventional pbc="T T F"
Zn       0.00000000       0.00000000      10.00000000  F        2
Zn       0.00000000       2.60300000      10.00000000  F        2
O        0.00000000       1.99129500      10.00000000  F        2
O        0.00000000       4.59429500      10.00000000  F        2
Zn       1.23450571       0.90548040      14.49329633  T        1
Zn       0.34367506       3.62306665      13.23751434  T        1
O        1.94453928       2.76516378      12.95031832  T        1
O        2.86966120       5.23106709      14.48499889  T        1
O        1.62535158       2.09458340      19.40942656  T        0
C        1.62230419       2.98510674      18.64555124  T        0
O        1.61943055       3.87129424      17.87655963  T        0
