11
Lattice="3.249 0.0 0.0 0.0 5.206 0.0 0.0 0.0 22.81371653689564" Properties=species:S:1:pos:R:3:move_mask:L:1:tags:I:1 spacegroup="_JSON {\"number\": 186, \"setting\": 1}" unit_cell=conventional pbc="T T F"
Zn       0.00000000       0.00000000      10.00000000  F        2
Zn       0.00000000       2.60300000      10.00000000  F        2
O        0.00000000       1.99129500      10.00000000  F        2
O        0.00000000       4.59429500      10.00000000  F        2
Zn       1.62487768       0.83722897      13.95355654  T        1
Zn       0.02860448       3.44458296      13.52957202  T        1
O        1.65145230       2.56420050      13.19848838  T        1
O        3.25097141       5.17323930      14.28347137  T        1
O        1.19443790       1.98814339      19.36033980  T        0
C        1.64255831       2.71898120      18.55912074  T        0
O        2.09026942       3.44870962      17.75625949  T        0
