11
Lattice="3.249 0.0 0.0 0.0 5.206 0.0 0.0 0.0 22.81371653689564" Properties=species:S:1:pos:R:3:move_mask:L:1:tags:I:1:magmoms:R:1:forces:R:3 spacegroup="_JSON {\"number\": 186, \"setting\": 1}" unit_cell=conventional energy=294.9106372524302 free_energy=294.91053984782263 dipole="-3.9352846616862935 0.36034846390797354 0.005118300105333423" magmom=0.0 pbc="T T F"
Zn       0.00000000       0.00000000      10.00000000  F        2       0.00000000      -0.00149079     435.35794647       0.00403321
Zn       0.00000000       2.60300000      10.00000000  F        2       0.00000000       0.00166846     435.55740948      -0.03148902
O        0.00000000       1.99129500      10.00000000  F        2       0.00000000       0.00444699    -435.58636804       0.06476452
O        0.00000000       4.59429500      10.00000000  F        2       0.00000000      -0.00010658    -435.26276711       0.09658733
Zn       1.73712244       0.10617321      14.10756320  T        1       0.00000000      -0.00011440      -0.00090541       0.00034793
Zn       0.10321421       2.70902492      13.67085182  T        1       0.00000000      -0.00031504      -0.00152154      -0.00053984
O        1.72790594       1.82680216      13.33039245  T        1       0.00000000      -0.00022825      -0.00136327      -0.00033177
O        3.36126037       4.42897480      14.45635306  T        1       0.00000000      -0.00003413      -0.00268770       0.00072833
O        1.18091677       1.94445812      19.04543394  T        0       0.00000000      -0.00498240       0.00118902      -0.00904284
C        1.70533228       1.85419143      18.00108307  T        0       0.00000000       0.00919876      -0.02216401      -0.03662926
O        2.22969918       1.75972919      16.95541701  T        0       0.00000000      -0.00340749      -0.04096289      -0.01209452
