11
Lattice="3.249 0.0 0.0 0.0 5.206 0.0 0.0 0.0 22.81371653689564" Properties=species:S:1:pos:R:3:tags:I:1:magmoms:R:1:forces:R:3 spacegroup="_JSON {\"number\": 186, \"setting\": 1}" unit_cell=conventional energy=326.09070362500114 free_energy=326.09070200588445 dipole="-1.1131286100057658 2.22587288970814 0.10001045187681033" magmom=0.0 pbc="T T F"
Zn       0.00000000       0.00000000      10.00000000        2       0.00000000       0.00012610     444.74502771       0.01916136
Zn       0.00000000       2.60300000      10.00000000        2       0.00000000       0.00196655     445.06517774      -0.01333581
O        0.00000000       1.99129500      10.00000000        2       0.00000000       0.02477695    -445.16195085       0.38934202
O        0.00000000       4.59429500      10.00000000        2       0.00000000       0.00469279    -444.65511537       0.46633859
Zn       2.14171309       0.04015094      14.07873831        1       0.00000000       0.20471515       0.07871296      -0.16468891
Zn       0.67796752       2.67183606      14.20267686        1       0.00000000      -0.03889756       0.06756993      -0.19340898
O        1.87177927       1.57999961      13.24298481        1       0.00000000      -0.07250348      -0.08867332       0.14627277
O        2.50058165       3.70158495      14.90397190        1       0.00000000      -0.07282969       0.01835806      -0.16805404
O        1.05017159       1.44866265      17.27921127        0       0.00000000      -0.00354729       0.06779853       0.14994045
C        1.60039955       0.52478635      17.79270548        0       0.00000000       0.07348147      -0.11775914       0.05870685
O        2.15674493      -0.38988432      18.30637640        0       0.00000000      -0.01718439       0.00232821      -0.20629791
