11
Lattice="3.249 0.0 0.0 0.0 5.206 0.0 0.0 0.0 22.81371653689564" Properties=species:S:1:pos:R:3:tags:I:1 spacegroup="_JSON {\"number\": 186, \"setting\": 1}" unit_cell=conventional pbc="T T F"
Zn       0.00000000       0.00000000      10.00000000        2
Zn       0.00000000       2.60300000      10.00000000        2
O        0.00000000       1.99129500      10.00000000        2
O        0.00000000       4.59429500      10.00000000        2
Zn       2.90607309       0.19383618      13.69822935        1
Zn       1.26156049       2.80241369      14.14326355        1
O        1.28238783       1.09486442      13.26815347        1
O        2.88757459       3.68973638      14.57553347        1
O        1.05311827       2.14532138      18.47897461        0
C        1.60650040       1.25972087      17.91098825        0
O        2.15954456       0.37463369      17.33620964        0
