11
Lattice="3.249 0.0 0.0 0.0 5.206 0.0 0.0 0.0 22.81371653689564" Properties=species:S:1:pos:R:3:move_mask:L:1:tags:I:1 spacegroup="_JSON {\"number\": 186, \"setting\": 1}" unit_cell=conventional pbc="T T F"
Zn       0.00000000       0.00000000      10.00000000  F        2
Zn       0.00000000       2.60300000      10.00000000  F        2
O        0.00000000       1.99129500      10.00000000  F        2
O        0.00000000       4.59429500      10.00000000  F        2
Zn       1.22123919       0.63432708      13.89313570  T        1
Zn       2.82997524       3.25261931      13.94386893  T        1
O        1.52805724       2.18323226      13.12855671  T        1
O        0.96668939       4.28391692      14.67941435  T        1
O        1.14690851       0.65730037      18.83878136  T        0
C        1.64630024       1.38621334      18.06925273  T        0
O        2.14490008       2.11903159      17.29901304  T        0
