11
Lattice="3.249 0.0 0.0 0.0 5.206 0.0 0.0 0.0 22.81371653689564" Properties=species:S:1:pos:R:3:move_mask:L:1:tags:I:1:magmoms:R:1:forces:R:3 spacegroup="_JSON {\"number\": 186, \"setting\": 1}" unit_cell=conventional energy=295.89370287677474 free_energy=295.89315308893543 dipole="2.519498408968349 -7.727198787817093 0.021291575784500083" magmom=0.0 pbc="T T F"
Zn       0.00000000       0.00000000      10.00000000  F        2       0.00000000       0.00031119     435.23068406       0.02055011
Zn       0.00000000       2.60300000      10.00000000  F        2       0.00000000      -0.00163701     435.65848080      -0.03440882
O        0.00000000       1.99129500      10.00000000  F        2       0.00000000      -0.00436344    -435.74728097       0.06413185
O        0.00000000       4.59429500      10.00000000  F        2       0.00000000      -0.00127219    -435.08644876       0.15362937
Zn       1.22709715       0.45010589      14.05974228  T        1       0.00000000       0.00266659       0.00176300       0.00761359
Zn       2.85570039       3.05133532      14.08611810  T        1       0.00000000       0.00410002      -0.00003877       0.00659694
O        1.49547652       2.01528198      13.30187035  T        1       0.00000000      -0.00136198       0.00418650       0.00870555
O        0.95840172       4.10895069      14.85738646  T        1       0.00000000       0.00240673       0.00263558       0.00788101
O        1.15458421       0.06682484      18.64354584  T        0       0.00000000       0.01300562      -0.00535484      -0.02777571
C        1.65063391       0.79581791      17.87268839  T        0       0.00000000      -0.01954025      -0.05621315       0.02452169
O        2.14655618       1.53559063      17.10687964  T        0       0.00000000       0.01414069      -0.00684399      -0.02861908
