11
Lattice="3.249 0.0 0.0 0.0 5.206 0.0 0.0 0.0 22.81371653689564" Properties=species:S:1:pos:R:3:move_mask:L:1:tags:I:1 spacegroup="_JSON {\"number\": 186, \"setting\": 1}" unit_cell=conventional pbc="T T F"
Zn       0.00000000       0.00000000      10.00000000  F        2
Zn       0.00000000       2.60300000      10.00000000  F        2
O        0.00000000       1.99129500      10.00000000  F        2
O        0.00000000       4.59429500      10.00000000  F        2
Zn       2.39272221       0.72797589      14.92239419  T        1
Zn       0.80731545       3.66199255      13.07546251  T        1
O        2.37728235       2.95005972      12.56116196  T        1
O        0.81165409       5.21262262      14.46467429  T        1
O        1.62071384       2.09275949      19.40821876  T        0
C        1.62570311       2.98503336      18.64732378  T        0
O        1.63047807       3.87467785      17.88108103  T        0
