11
Lattice="3.249 0.0 0.0 0.0 5.206 0.0 0.0 0.0 22.81371653689564" Properties=species:S:1:pos:R:3:move_mask:L:1:tags:I:1 spacegroup="_JSON {\"number\": 186, \"setting\": 1}" unit_cell=conventional pbc="T T F"
Zn       0.00000000       0.00000000      10.00000000  F        2
Zn       0.00000000       2.60300000      10.00000000  F        2
O        0.00000000       1.99129500      10.00000000  F        2
O        0.00000000       4.59429500      10.00000000  F        2
Zn       0.76345250       1.07349673      13.72331250  T        1
Zn       2.44505199       3.67745571      14.19998341  T        1
O        2.39525965       1.95369957      13.43724783  T        1
O        0.81758570       4.56074140      14.49291729  T        1
O        1.13128461       1.18739699      19.01283581  T        0
C        1.64326082       1.89442227      18.23026532  T        0
O        2.15662815       2.60444237      17.44975049  T        0
