11
Lattice="3.249 0.0 0.0 0.0 5.206 0.0 0.0 0.0 22.81371653689564" Properties=species:S:1:pos:R:3:tags:I:1:magmoms:R:1:forces:R:3 spacegroup="_JSON {\"number\": 186, \"setting\": 1}" unit_cell=conventional energy=326.0800612046764 free_energy=326.08006032996013 dipole="-2.4797239632423396 -0.9539164998693208 0.13682987060684706" magmom=0.0 pbc="T T F"
Zn       0.00000000       0.00000000      10.00000000        2       0.00000000       0.00048746     444.68596064       0.02812863
Zn       0.00000000       2.60300000      10.00000000        2       0.00000000       0.00257820     445.08998354      -0.00529612
O        0.00000000       1.99129500      10.00000000        2       0.00000000       0.01076311    -445.21121811       0.41729574
O        0.00000000       4.59429500      10.00000000        2       0.00000000      -0.00298738    -444.59815450       0.46430412
Zn       2.03093507       0.73369721      14.22271227        1       0.00000000       0.02172961       0.01336878       0.01510809
Zn       0.46465966       3.39258972      14.35017094        1       0.00000000       0.01202754       0.02816485       0.02554218
O        1.53199392       2.21953142      13.41526530        1       0.00000000       0.02414384       0.01921631      -0.03139239
O        2.30702969       4.38658696      15.07210344        1       0.00000000      -0.01588981       0.00168062       0.01354344
O        1.03796766       1.89843046      16.86766912        0       0.00000000      -0.04149770       0.01274824       0.06904985
C        1.46303527       1.54995785      17.92342937        0       0.00000000       0.00362051      -0.01219044      -0.04034272
O        1.89291904       1.20866323      18.97425156        0       0.00000000       0.09674845      -0.07379353      -0.02130529
