11
Lattice="3.249 0.0 0.0 0.0 5.206 0.0 0.0 0.0 22.81371653689564" Properties=species:S:1:pos:R:3:tags:I:1 spacegroup="_JSON {\"number\": 186, \"setting\": 1}" unit_cell=conventional pbc="T T F"
Zn       0.00000000       0.00000000      10.00000000        2
Zn       0.00000000       2.60300000      10.00000000        2
O        0.00000000       1.99129500      10.00000000        2
O        0.00000000       4.59429500      10.00000000        2
Zn       0.65286504       1.48513333      14.88881581        1
Zn       2.20413339       4.09818892      14.44307228        1
O        0.57988524       3.21300712      14.11135114        1
O        2.27503630       5.80714577      15.27941380        1
O        1.75399025       3.03328274      17.13233615        0
C        1.42356570       3.74194865      18.03308293        0
O        1.08947713       4.43497655      18.93748132        0
