11
Lattice="3.249 0.0 0.0 0.0 5.206 0.0 0.0 0.0 22.81371653689564" Properties=species:S:1:pos:R:3:move_mask:L:1:tags:I:1 spacegroup="_JSON {\"number\": 186, \"setting\": 1}" unit_cell=conventional pbc="T T F"
Zn       0.00000000       0.00000000      10.00000000  F        2
Zn       0.00000000       2.60300000      10.00000000  F        2
O        0.00000000       1.99129500      10.00000000  F        2
O        0.00000000       4.59429500      10.00000000  F        2
Zn       1.70087292       0.40159240      14.09619694  T        1
Zn       0.07217737       3.00595804      13.68275615  T        1
O        1.69673036       2.12711984      13.33365892  T        1
O        3.32524666       4.73419610      14.44850187  T        1
O        1.17138035       1.93139224      19.34457267  T        0
C        1.68131480       2.23059010      18.33147103  T        0
O        2.19203135       2.52857556      17.31768822  T        0
