11
Lattice="3.249 0.0 0.0 0.0 5.206 0.0 0.0 0.0 22.81371653689564" Properties=species:S:1:pos:R:3:tags:I:1 spacegroup="_JSON {\"number\": 186, \"setting\": 1}" unit_cell=conventional pbc="T T F"
Zn       0.00000000       0.00000000      10.00000000        2
Zn       0.00000000       2.60300000      10.00000000        2
O        0.00000000       1.99129500      10.00000000        2
O        0.00000000       4.59429500      10.00000000        2
Zn       0.94915243       1.43932298      14.94710887        1
Zn       2.38107856       4.04137695      14.46948506        1
O        0.75974459       3.15011011      14.14639689        1
O        2.57090508       5.74341141      15.27525709        1
O        1.73189364       2.90271626      17.79851179        0
C        1.41830203       3.95043988      18.01847813        0
O        1.05893388       5.13916879      18.27229353        0
