11
Lattice="3.249 0.0 0.0 0.0 5.206 0.0 0.0 0.0 22.81371653689564" Properties=species:S:1:pos:R:3:tags:I:1:magmoms:R:1:forces:R:3 spacegroup="_JSON {\"number\": 186, \"setting\": 1}" unit_cell=conventional energy=325.1123989691509 free_energy=325.11239896449973 dipole="5.462046463810498 1.1890343503753542 0.04832892088439757" magmom=0.0 pbc="T T F"
Zn       0.00000000       0.00000000      10.00000000        2       0.00000000      -0.00156517     444.75960203       0.01862328
Zn       0.00000000       2.60300000      10.00000000        2       0.00000000      -0.00619375     445.00865722      -0.00614208
O        0.00000000       1.99129500      10.00000000        2       0.00000000      -0.01436730    -445.06364813       0.40820056
O        0.00000000       4.59429500      10.00000000        2       0.00000000       0.00476863    -444.69257749       0.41799402
Zn       2.74542335       0.96258796      14.04826802        1       0.00000000       0.01321450       0.11099553      -0.08210378
Zn       1.28353921       3.57382938      14.46010962        1       0.00000000      -0.02031514       0.02326430      -0.04549819
O        1.12580491       1.84815392      13.69137846        1       0.00000000       0.06028915      -0.06113315      -0.15483442
O        2.90537501       4.45901253      14.83825564        1       0.00000000      -0.04597376      -0.05542801       0.01243729
O        1.09383977       2.70778646      19.15607890        0       0.00000000       0.15841575      -0.01080582      -0.43570860
C        1.50585080       2.62659726      18.03780557        0       0.00000000      -0.30978480       0.03338448       0.89835705
O        1.91813167       2.54251338      16.92927239        0       0.00000000       0.16612307      -0.11520364      -0.44140121
