11
Lattice="3.249 0.0 0.0 0.0 5.206 0.0 0.0 0.0 22.81371653689564" Properties=species:S:1:pos:R:3:tags:I:1 spacegroup="_JSON {\"number\": 186, \"setting\": 1}" unit_cell=conventional pbc="T T F"
Zn       0.00000000       0.00000000      10.00000000        2
Zn       0.00000000       2.60300000      10.00000000        2
O        0.00000000       1.99129500      10.00000000        2
O        0.00000000       4.59429500      10.00000000        2
Zn       1.64094980       0.98212604      14.32310173        1
Zn       2.14976768       3.59556778      14.26582387        1
O        0.67108700       2.51916397      13.89272707        1
O        3.10575193       5.12607273      14.76943961        1
O        1.23131258       2.31773510      19.09601213        0
C        1.43370278       3.08129679      18.11709357        0
O        1.61898021       3.76695099      17.23988507        0
