11
Lattice="3.249 0.0 0.0 0.0 5.206 0.0 0.0 0.0 22.81371653689564" Properties=species:S:1:pos:R:3:move_mask:L:1:tags:I:1:magmoms:R:1:forces:R:3 spacegroup="_JSON {\"number\": 186, \"setting\": 1}" unit_cell=conventional energy=295.90452745124094 free_energy=295.90405519837867 dipole="2.774944659574128 -5.674862507401536 0.02700702420011982" magmom=0.0 pbc="T T F"
Zn       0.00000000       0.00000000      10.00000000  F        2       0.00000000       0.00142934     435.26668717       0.01531110
Zn       0.00000000       2.60300000      10.00000000  F        2       0.00000000      -0.00669129     435.64429473      -0.04315787
O        0.00000000       1.99129500      10.00000000  F        2       0.00000000      -0.01758063    -435.71664318       0.02901061
O        0.00000000       4.59429500      10.00000000  F        2       0.00000000      -0.00561149    -435.13017544       0.15953767
Zn       1.23926585       0.17836356      14.04997102  T        1       0.00000000      -0.00071670       0.00168775       0.00493903
Zn       2.85168821       2.77623638      14.07123310  T        1       0.00000000      -0.00178340      -0.00210260      -0.00217323
O        0.98276062       1.74978184      13.30164423  T        1       0.00000000       0.01735235      -0.00522073      -0.00163452
O        1.51424206       3.84411927      14.85408266  T        1       0.00000000      -0.01822395       0.00931639       0.00722176
O        1.25338302       0.02940284      18.61921299  T        0       0.00000000       0.00436313      -0.05256520      -0.00423490
C        1.76948241       0.59635400      17.73415613  T        0       0.00000000      -0.00117992      -0.03177095       0.03277245
O        2.28669912       1.17746330      16.85462939  T        0       0.00000000       0.01018032       0.00552292       0.04461039
