11
Lattice="3.249 0.0 0.0 0.0 5.206 0.0 0.0 0.0 22.81371653689564" Properties=species:S:1:pos:R:3:move_mask:L:1:tags:I:1 spacegroup="_JSON {\"number\": 186, \"setting\": 1}" unit_cell=conventional pbc="T T F"
Zn       0.00000000       0.00000000      10.00000000  F        2
Zn       0.00000000       2.60300000      10.00000000  F        2
O        0.00000000       1.99129500      10.00000000  F        2
O        0.00000000       4.59429500      10.00000000  F        2
Zn       1.04887920      -0.45227297      14.08694354  T        1
Zn       2.65457657       2.15370012      13.66189227  T        1
O        1.03199198       1.27450495      13.32641439  T        1
O        2.67259439       3.87461295      14.44082660  T        1
O        1.15158566       1.04268430      19.03295730  T        0
C        1.66711832       1.20074028      17.99193393  T        0
O        2.18243302       1.35556472      16.94894097  T        0
