11
Lattice="3.249 0.0 0.0 0.0 5.206 0.0 0.0 0.0 22.81371653689564" Properties=species:S:1:pos:R:3:move_mask:L:1:tags:I:1 spacegroup="_JSON {\"number\": 186, \"setting\": 1}" unit_cell=conventional pbc="T T F"
Zn       0.00000000       0.00000000      10.00000000  F        2
Zn       0.00000000       2.60300000      10.00000000  F        2
O        0.00000000       1.99129500      10.00000000  F        2
O        0.00000000       4.59429500      10.00000000  F        2
Zn       0.07397558       0.26687625      13.64075762  T        1
Zn       1.71346926       2.87066945      14.10548146  T        1
O        1.69871186       1.15624472      13.31472790  T        1
O        3.33787335       3.76097389      14.44685582  T        1
O        1.19159849       0.36033041      18.62915769  T        0
C        1.70946709       0.85645150      17.70239832  T        0
O        2.22886502       1.35918531      16.77763068  T        0
