11
Lattice="3.249 0.0 0.0 0.0 5.206 0.0 0.0 0.0 22.81371653689564" Properties=species:S:1:pos:R:3:move_mask:L:1:tags:I:1 spacegroup="_JSON {\"number\": 186, \"setting\": 1}" unit_cell=conventional pbc="T T F"
Zn       0.00000000       0.00000000      10.00000000  F        2
Zn       0.00000000       2.60300000      10.00000000  F        2
O        0.00000000       1.99129500      10.00000000  F        2
O        0.00000000       4.59429500      10.00000000  F        2
Zn       0.71625190      -0.02945225      14.20068181  T        1
Zn       2.61075187       2.57589236      13.90132057  T        1
O        0.95341346       1.69432604      13.47454812  T        1
O        2.30497397       4.26140399      14.65391719  T        1
O        1.24459960       0.01135921      18.62237014  T        0
C        1.76387291       0.60596248      17.75658384  T        0
O        2.28111355       1.21029411      16.89403959  T        0
