11
Lattice="3.249 0.0 0.0 0.0 5.206 0.0 0.0 0.0 22.81371653689564" Properties=species:S:1:pos:R:3:move_mask:L:1:tags:I:1 spacegroup="_JSON {\"number\": 186, \"setting\": 1}" unit_cell=conventional pbc="T T F"
Zn       0.00000000       0.00000000      10.00000000  F        2
Zn       0.00000000       2.60300000      10.00000000  F        2
O        0.00000000       1.99129500      10.00000000  F        2
O        0.00000000       4.59429500      10.00000000  F        2
Zn       1.70488249      -0.20802501      14.09033430  T        1
Zn       0.10411537       2.39512744      13.65892336  T        1
O        1.72673948       1.51411246      13.31768237  T        1
O        3.33135170       4.11240162      14.44728969  T        1
O        1.16206791       0.64502377      18.81530189  T        0
C        1.68362277       0.91266115      17.80033662  T        0
O        2.20606707       1.17909446      16.78358584  T        0
