11
Lattice="3.249 0.0 0.0 0.0 5.206 0.0 0.0 0.0 22.81371653689564" Properties=species:S:1:pos:R:3:move_mask:L:1:tags:I:1:magmoms:R:1:forces:R:3 spacegroup="_JSON {\"number\": 186, \"setting\": 1}" unit_cell=conventional energy=295.91303218299754 free_energy=295.9127621882081 dipole="2.8740535867998784 -9.0852187964526 -0.01687577652091272" magmom=0.0 pbc="T T F"
Zn       0.00000000       0.00000000      10.00000000  F        2       0.00000000       0.00254585     435.27992260       0.01230584
Zn       0.00000000       2.60300000      10.00000000  F        2       0.00000000      -0.00693282     435.63568127      -0.04685563
O        0.00000000       1.99129500      10.00000000  F        2       0.00000000      -0.01780629    -435.69827277       0.03373622
O        0.00000000       4.59429500      10.00000000  F        2       0.00000000      -0.00453357    -435.15284385       0.16127783
Zn       1.23693938       0.16239996      14.07669717  T        1       0.00000000      -0.01670430      -0.01643086       0.00777640
Zn       2.80882849       2.72796996      14.02799399  T        1       0.00000000      -0.03715738      -0.03346559      -0.04258826
O        0.94364357       1.72759921      13.30426594  T        1       0.00000000       0.09973664       0.02216954       0.02498917
O        1.68916348       3.88949165      14.90332777  T        1       0.00000000      -0.03920124      -0.00949487       0.00067621
O        1.35930249       0.13909179      18.77053957  T        0       0.00000000       0.01473262       0.02573766       0.01146433
C        1.87530758       0.65767570      17.85565011  T        0       0.00000000       0.00968619       0.00232910       0.01405522
O        2.39263398       1.19131232      16.94661987  T        0       0.00000000       0.00459984      -0.03010057      -0.01124297
