11
Lattice="3.249 0.0 0.0 0.0 5.206 0.0 0.0 0.0 22.81371653689564" Properties=species:S:1:pos:R:3:move_mask:L:1:tags:I:1 spacegroup="_JSON {\"number\": 186, \"setting\": 1}" unit_cell=conventional pbc="T T F"
Zn       0.00000000       0.00000000      10.00000000  F        2
Zn       0.00000000       2.60300000      10.00000000  F        2
O        0.00000000       1.99129500      10.00000000  F        2
O        0.00000000       4.59429500      10.00000000  F        2
Zn       1.69786300      -0.19240058      14.08946578  T        1
Zn       0.09873743       2.41054093      13.66284155  T        1
O        1.72127968       1.52937923      13.31906094  T        1
O        3.32446623       4.12993496      14.44712934  T        1
O        1.15882756       0.49363956      18.79946020  T        0
C        1.67824605       0.83160383      17.80485248  T        0
O        2.19840847       1.17382118      16.81000119  T        0
