11
Lattice="3.249 0.0 0.0 0.0 5.206 0.0 0.0 0.0 22.81371653689564" Properties=species:S:1:pos:R:3:move_mask:L:1:tags:I:1 spacegroup="_JSON {\"number\": 186, \"setting\": 1}" unit_cell=conventional pbc="T T F"
Zn       0.00000000       0.00000000      10.00000000  F        2
Zn       0.00000000       2.60300000      10.00000000  F        2
O        0.00000000       1.99129500      10.00000000  F        2
O        0.00000000       4.59429500      10.00000000  F        2
Zn       1.10526381       0.23407877      13.99204622  T        1
Zn       0.42429315       2.83337896      13.96826521  T        1
O        1.91883994       1.83529619      13.54053621  T        1
O        2.86439600       4.43892568      14.42759624  T        1
O        1.24802327      -0.94542457      17.81535966  T        0
C        1.70536460       0.10149946      17.55031583  T        0
O        2.15715821       1.15565937      17.29463786  T        0
