11
Lattice="3.249 0.0 0.0 0.0 5.206 0.0 0.0 0.0 22.81371653689564" Properties=species:S:1:pos:R:3:move_mask:L:1:tags:I:1 spacegroup="_JSON {\"number\": 186, \"setting\": 1}" unit_cell=conventional pbc="T T F"
Zn       0.00000000       0.00000000      10.00000000  F        2
Zn       0.00000000       2.60300000      10.00000000  F        2
O        0.00000000       1.99129500      10.00000000  F        2
O        0.00000000       4.59429500      10.00000000  F        2
Zn       0.08642416       0.29103547      13.64465019  T        1
Zn       1.68479308       2.89369822      14.10784234  T        1
O        1.70854831       1.17841887      13.31741327  T        1
O        3.31199093       3.78654513      14.44949331  T        1
O        1.19119619       0.31667259      18.61659565  T        0
C        1.70862806       0.83131977      17.69984071  T        0
O        2.22746107       1.35387227      16.78574169  T        0
