11
Lattice="3.249 0.0 0.0 0.0 5.206 0.0 0.0 0.0 22.81371653689564" Properties=species:S:1:pos:R:3:move_mask:L:1:tags:I:1 spacegroup="_JSON {\"number\": 186, \"setting\": 1}" unit_cell=conventional pbc="T T F"
Zn       0.00000000       0.00000000      10.00000000  F        2
Zn       0.00000000       2.60300000      10.00000000  F        2
O        0.00000000       1.99129500      10.00000000  F        2
O        0.00000000       4.59429500      10.00000000  F        2
Zn       1.22300381       0.14439083      14.07023193  T        1
Zn       2.78654600       2.70037398      14.00155643  T        1
O        0.96064814       1.72248347      13.30583827  T        1
O        1.69754701       3.88057783      14.89590032  T        1
O        1.36659305      -0.17234215      18.63264963  T        0
C        1.85758202       0.48268056      17.79477638  T        0
O        2.34711957       1.15263346      16.96321482  T        0
