11
Lattice="3.249 0.0 0.0 0.0 5.206 0.0 0.0 0.0 22.81371653689564" Properties=species:S:1:pos:R:3:move_mask:L:1:tags:I:1 spacegroup="_JSON {\"number\": 186, \"setting\": 1}" unit_cell=conventional pbc="T T F"
Zn       0.00000000       0.00000000      10.00000000  F        2
Zn       0.00000000       2.60300000      10.00000000  F        2
O        0.00000000       1.99129500      10.00000000  F        2
O        0.00000000       4.59429500      10.00000000  F        2
Zn       0.80145203       0.38990958      14.32112677  T        1
Zn       2.43171067       3.00258669      13.94098060  T        1
O        0.80924861       2.13281695      13.62322020  T        1
O        2.42863026       4.74005669      14.64866213  T        1
O        0.75071730       2.35636263      18.26421254  T        0
C        1.28074231       1.34733689      17.98672587  T        0
O        1.80943938       0.34108381      17.69758508  T        0
