11
Lattice="3.249 0.0 0.0 0.0 5.206 0.0 0.0 0.0 22.81371653689564" Properties=species:S:1:pos:R:3:move_mask:L:1:tags:I:1 spacegroup="_JSON {\"number\": 186, \"setting\": 1}" unit_cell=conventional pbc="T T F"
Zn       0.00000000       0.00000000      10.00000000  F        2
Zn       0.00000000       2.60300000      10.00000000  F        2
O        0.00000000       1.99129500      10.00000000  F        2
O        0.00000000       4.59429500      10.00000000  F        2
Zn      -0.00563213       0.42161207      13.85437846  T        1
Zn       1.62983473       3.02587651      14.26874441  T        1
O        1.61554093       1.30488008      13.50276967  T        1
O        3.25035011       3.90322928      14.63340571  T        1
O        0.96076652       0.76029128      19.02579776  T        0
C        1.49994872       0.86437030      17.99076843  T        0
O        2.03946342       0.97236464      16.95491197  T        0
