2
Lattice="16.0 0.0 0.0 0.0 16.0 0.0 0.0 0.0 16.74" Properties=species:S:1:pos:R:3:magmoms:R:1:forces:R:3 energy=-6.751316982689541 free_energy=-6.751316982689541 dipole="-2.7227868110959037e-15 -2.0536030275895064e-16 1.4207962828552294e-15" magmom=0.0 pbc="T T T"
H        8.00000000       8.00000000       7.99367855       0.00000000      -0.00000000      -0.00000000       0.00994598
H        8.00000000       8.00000000       8.74632145       0.00000000       0.00000000      -0.00000000      -0.00994598
