11
Lattice="3.249 0.0 0.0 0.0 5.206 0.0 0.0 0.0 22.81371653689564" Properties=species:S:1:pos:R:3:move_mask:L:1:tags:I:1 spacegroup="_JSON {\"number\": 186, \"setting\": 1}" unit_cell=conventional pbc="T T F"
Zn       0.00000000       0.00000000      10.00000000  F        2
Zn       0.00000000       2.60300000      10.00000000  F        2
O        0.00000000       1.99129500      10.00000000  F        2
O        0.00000000       4.59429500      10.00000000  F        2
Zn       2.38699034       0.82586786      14.79704518  T        1
Zn       0.82006838       3.65532564      13.12252023  T        1
O        2.38560036       2.88145447      12.66579140  T        1
O        0.80967818       5.23379371      14.45182495  T        1
O        1.62022841       2.09283692      19.40966001  T        0
C        1.62552881       2.98424090      18.64763064  T        0
O        1.63069416       3.87221730      17.87963076  T        0
