11
Lattice="3.249 0.0 0.0 0.0 5.206 0.0 0.0 0.0 22.81371653689564" Properties=species:S:1:pos:R:3:move_mask:L:1:tags:I:1 spacegroup="_JSON {\"number\": 186, \"setting\": 1}" unit_cell=conventional pbc="T T F"
Zn       0.00000000       0.00000000      10.00000000  F        2
Zn       0.00000000       2.60300000      10.00000000  F        2
O        0.00000000       1.99129500      10.00000000  F        2
O        0.00000000       4.59429500      10.00000000  F        2
Zn       1.62852599       0.87302578      15.72738820  T        1
Zn       1.62510766       3.82009087      13.05708746  T        1
O        1.62553053       2.72129401      11.65603274  T        1
O        1.61885843       5.15592888      14.19152268  T        1
O        1.62451158       2.08962813      19.41611285  T        0
C        1.62449720       2.97534083      18.64773897  T        0
O        1.62447395       3.87383696      17.89197768  T        0
