11
Lattice="3.249 0.0 0.0 0.0 5.206 0.0 0.0 0.0 22.81371653689564" Properties=species:S:1:pos:R:3:move_mask:L:1:tags:I:1 spacegroup="_JSON {\"number\": 186, \"setting\": 1}" unit_cell=conventional pbc="T T F"
Zn       0.00000000       0.00000000      10.00000000  F        2
Zn       0.00000000       2.60300000      10.00000000  F        2
O        0.00000000       1.99129500      10.00000000  F        2
O        0.00000000       4.59429500      10.00000000  F        2
Zn       1.06856345      -0.47428841      14.09201326  T        1
Zn       2.69137622       2.13149452      13.66924302  T        1
O        1.06797135       1.25138799      13.33115538  T        1
O        2.69339455       3.85397581      14.44602134  T        1
O        1.14532832       1.15042603      19.03211705  T        0
C        1.66467216       1.24321752      17.98516021  T        0
O        2.18390449       1.33657327      16.93694826  T        0
