11
Lattice="3.249 0.0 0.0 0.0 5.206 0.0 0.0 0.0 22.81371653689564" Properties=species:S:1:pos:R:3:move_mask:L:1:tags:I:1 spacegroup="_JSON {\"number\": 186, \"setting\": 1}" unit_cell=conventional pbc="T T F"
Zn       0.00000000       0.00000000      10.00000000  F        2
Zn       0.00000000       2.60300000      10.00000000  F        2
O        0.00000000       1.99129500      10.00000000  F        2
O        0.00000000       4.59429500      10.00000000  F        2
Zn       0.80557157      -0.05780785      14.24659978  T        1
Zn       2.48936458       2.54539858      13.85467003  T        1
O        0.86464775       1.67576452      13.50787118  T        1
O        2.44262841       4.27693259      14.61168811  T        1
O        1.27144088      -0.03311354      18.64510310  T        0
C        1.78770302       0.59404758      17.80077471  T        0
O        2.29923294       1.22870822      16.95620828  T        0
