11
Lattice="3.249 0.0 0.0 0.0 5.206 0.0 0.0 0.0 22.81371653689564" Properties=species:S:1:pos:R:3:move_mask:L:1:tags:I:1 spacegroup="_JSON {\"number\": 186, \"setting\": 1}" unit_cell=conventional pbc="T T F"
Zn       0.00000000       0.00000000      10.00000000  F        2
Zn       0.00000000       2.60300000      10.00000000  F        2
O        0.00000000       1.99129500      10.00000000  F        2
O        0.00000000       4.59429500      10.00000000  F        2
Zn       1.63675501       0.87186402      15.73269423  T        1
Zn       1.61448549       3.81814357      13.05869618  T        1
O        1.62164269       2.71692367      11.65643744  T        1
O        1.61632544       5.16008789      14.19023702  T        1
O        1.62444402       2.08974247      19.41645391  T        0
C        1.62456710       2.97493346      18.64783388  T        0
O        1.62462579       3.87332482      17.89160009  T        0
