11
Lattice="3.249 0.0 0.0 0.0 5.206 0.0 0.0 0.0 22.81371653689564" Properties=species:S:1:pos:R:3:move_mask:L:1:tags:I:1 spacegroup="_JSON {\"number\": 186, \"setting\": 1}" unit_cell=conventional pbc="T T F"
Zn       0.00000000       0.00000000      10.00000000  F        2
Zn       0.00000000       2.60300000      10.00000000  F        2
O        0.00000000       1.99129500      10.00000000  F        2
O        0.00000000       4.59429500      10.00000000  F        2
Zn       2.37749458       0.89063783      14.70437967  T        1
Zn       0.83529784       3.65758086      13.14624255  T        1
O        2.39377001       2.84315015      12.70277229  T        1
O        0.80462431       5.24533893      14.43944706  T        1
O        1.62176788       2.09286971      19.41069201  T        0
C        1.62532934       2.98416160      18.64761802  T        0
O        1.62877190       3.87102071      17.87916261  T        0
