11
Lattice="3.249 0.0 0.0 0.0 5.206 0.0 0.0 0.0 22.81371653689564" Properties=species:S:1:pos:R:3:move_mask:L:1:tags:I:1 spacegroup="_JSON {\"number\": 186, \"setting\": 1}" unit_cell=conventional pbc="T T F"
Zn       0.00000000       0.00000000      10.00000000  F        2
Zn       0.00000000       2.60300000      10.00000000  F        2
O        0.00000000       1.99129500      10.00000000  F        2
O        0.00000000       4.59429500      10.00000000  F        2
Zn       1.22463639       0.64476992      13.88843736  T        1
Zn       2.83533403       3.26188538      13.93721857  T        1
O        1.52402538       2.19738807      13.12688853  T        1
O        0.97046079       4.29502838      14.67559021  T        1
O        1.13902949       0.71274546      18.85219064  T        0
C        1.64870650       1.42017643      18.06974959  T        0
O        2.15700360       2.13285185      17.28776525  T        0
