9
Lattice="3.249 0.0 0.0 0.0 5.206 0.0 0.0 0.0 22.81371653689564" Properties=species:S:1:pos:R:3:move_mask:L:1:tags:I:1:magmoms:R:1:forces:R:3 spacegroup="_JSON {\"number\": 186, \"setting\": 1}" unit_cell=conventional energy=314.21878780207595 free_energy=314.21878780108835 dipole="-0.011772925737201921 -2.3884871848978633 -0.034360610772951904" magmom=0.0 pbc="T T F"
Zn       0.00000000       0.00000000      10.00000000  F        2       0.00000000      -0.00059817     435.43149774       0.00071859
Zn       0.00000000       2.60300000      10.00000000  F        2       0.00000000      -0.00009762     435.44038265       0.00456746
O        0.00000000       1.99129500      10.00000000  F        2       0.00000000       0.00099876    -435.40480044       0.10563416
O       -0.00000000       4.59429500      10.00000000  F        2       0.00000000       0.00189938    -435.41579155       0.10014994
Zn       2.47012336       0.44039719      15.63099327  T        1       0.00000000       0.02497658      -0.02458359      -0.01280787
Zn       0.86314291       3.24763594      14.46439673  T        1       0.00000000       0.00375128       0.01840402       0.04339233
O        0.84861497       1.34923886      14.58452267  T        1       0.00000000      -0.00713568      -0.03468982      -0.02616737
O        2.48729934       4.06444113      14.64818520  T        1       0.00000000      -0.02290470      -0.01650383      -0.02275889
O        0.84775560       1.37774244      16.19505927  T        0       0.00000000      -0.01010779      -0.03125644      -0.01755744
