11
Lattice="3.249 0.0 0.0 0.0 5.206 0.0 0.0 0.0 22.81371653689564" Properties=species:S:1:pos:R:3:move_mask:L:1:tags:I:1 spacegroup="_JSON {\"number\": 186, \"setting\": 1}" unit_cell=conventional pbc="T T F"
Zn       0.00000000       0.00000000      10.00000000  F        2
Zn       0.00000000       2.60300000      10.00000000  F        2
O        0.00000000       1.99129500      10.00000000  F        2
O        0.00000000       4.59429500      10.00000000  F        2
Zn       2.56032983       0.29601572      13.51503010  T        1
Zn       1.05359204       2.90906018      13.88187787  T        1
O        0.99796521       1.20953814      13.00820073  T        1
O        2.61901939       3.81007125      14.39131322  T        1
O        1.06991458       2.03516834      17.77741932  T        0
C        1.62803057       1.02751831      17.47405227  T        0
O        2.18259077       0.02502917      17.14964004  T        0
