11
Lattice="3.249 0.0 0.0 0.0 5.206 0.0 0.0 0.0 22.81371653689564" Properties=species:S:1:pos:R:3:move_mask:L:1:tags:I:1:magmoms:R:1:forces:R:3 spacegroup="_JSON {\"number\": 186, \"setting\": 1}" unit_cell=conventional energy=325.20933363354806 free_energy=325.2093336132378 dipole="1.7130908280272574 -2.5269026783956634 0.013709065936651593" magmom=0.0 pbc="T T F"
Zn       0.00000000       0.00000000      10.00000000  F        2       0.00000000       0.00233732     444.76848499      -0.03339176
Zn       0.00000000       2.60300000      10.00000000  F        2       0.00000000       0.01225324     445.18840942      -0.10712559
O        0.00000000       1.99129500      10.00000000  F        2       0.00000000      -0.00018759    -445.25710662       0.39302577
O        0.00000000       4.59429500      10.00000000  F        2       0.00000000       0.02255370    -444.68654246       0.47540179
Zn       0.96438517       0.31034889      13.51149518  T        1       0.00000000      -0.57334497       0.14542398      -0.19858606
Zn       2.59838626       2.92424856      13.87918267  T        1       0.00000000       0.54809459       0.14010094       0.19499419
O        2.53745146       1.22368166      13.00767550  T        1       0.00000000       0.67364761      -0.16169703       0.41832258
O        1.01967845       3.82271251      14.38559984  T        1       0.00000000      -0.64083893      -0.16514224      -0.43352664
O        1.06750767       2.06189636      17.56369001  T        0       0.00000000       0.01814270       0.03287697       0.02616807
C        1.63186682       1.01814194      17.45906344  T        0       0.00000000      -0.00384031      -0.01077658       0.00901688
O        2.19703542      -0.02201809      17.34116626  T        0       0.00000000      -0.05146855       0.01269037       0.00229012
