11
Lattice="3.249 0.0 0.0 0.0 5.206 0.0 0.0 0.0 22.81371653689564" Properties=species:S:1:pos:R:3:move_mask:L:1:tags:I:1:magmoms:R:1:forces:R:3 spacegroup="_JSON {\"number\": 186, \"setting\": 1}" unit_cell=conventional energy=294.89489202514477 free_energy=294.894892014053 dipole="-0.9109074820553174 -7.281626826882039 0.006352002804752726" magmom=0.0 pbc="T T F"
Zn       0.00000000       0.00000000      10.00000000  F        2       0.00000000       0.00302835     435.24937451       0.00283181
Zn       0.00000000       2.60300000      10.00000000  F        2       0.00000000       0.00390304     435.70359362      -0.05622495
O        0.00000000       1.99129500      10.00000000  F        2       0.00000000       0.02185080    -435.76124680       0.03883433
O       -0.00000000       4.59429500      10.00000000  F        2       0.00000000       0.01308004    -435.11629029       0.11954552
Zn       0.69834709       0.45325541      13.49590791  T        1       0.00000000       0.01082529      -0.02153372      -0.01364589
Zn       2.37759107       3.04833266      13.96821121  T        1       0.00000000      -0.02984500      -0.01186103      -0.00522698
O        2.32488206       1.33661965      13.17701940  T        1       0.00000000       0.00426807       0.01314493      -0.00582976
O        0.74971578       3.93984243      14.28457752  T        1       0.00000000      -0.01492060       0.02221409      -0.01066473
O        1.13773837       1.20001639      16.54873980  T        0       0.00000000       0.02037381      -0.01048862      -0.00416437
C        1.65975582       0.26267043      17.02721152  T        0       0.00000000       0.00121795      -0.03460566      -0.00944036
O        2.18805219      -0.66130397      17.51480754  T        0       0.00000000      -0.01894058       0.00810507       0.00991423
