11
Lattice="3.249 0.0 0.0 0.0 5.206 0.0 0.0 0.0 22.81371653689564" Properties=species:S:1:pos:R:3:move_mask:L:1:tags:I:1:magmoms:R:1:forces:R:3 spacegroup="_JSON {\"number\": 186, \"setting\": 1}" unit_cell=conventional energy=325.1069508812961 free_energy=325.1069508771651 dipole="2.0543949927261993 -2.8066057532544493 0.0005798660932143654" magmom=0.0 pbc="T T F"
Zn       0.00000000       0.00000000      10.00000000  F        2       0.00000000      -0.00169347     444.76067414       0.01399275
Zn       0.00000000       2.60300000      10.00000000  F        2       0.00000000       0.00030923     445.09720926      -0.01967450
O        0.00000000       1.99129500      10.00000000  F        2       0.00000000       0.00117871    -445.18342551       0.44054077
O        0.00000000       4.59429500      10.00000000  F        2       0.00000000      -0.00435142    -444.66933254       0.44378252
Zn       3.16019082       0.47811871      13.64528654  T        1       0.00000000      -0.11579797       0.02821185      -0.06286070
Zn       1.11370046       3.07863044      13.99460173  T        1       0.00000000       0.12197139       0.02897113       0.01269201
O        1.51881526       1.37832368      13.25798145  T        1       0.00000000      -0.12776264      -0.05268499      -0.10237696
O        2.75594606       3.97736396      14.36855424  T        1       0.00000000       0.13569006      -0.05310203       0.05285236
O        1.11438245       2.31978382      19.16679098  T        0       0.00000000      -0.04632265      -0.03592888      -0.04836449
C        1.63148822       1.73391186      18.26963110  T        0       0.00000000       0.00218109      -0.00565260      -0.07317806
O        2.14399447       1.14772831      17.36775094  T        0       0.00000000       0.03678483       0.04435908      -0.07854648
