11
Lattice="3.249 0.0 0.0 0.0 5.206 0.0 0.0 0.0 22.81371653689564" Properties=species:S:1:pos:R:3:move_mask:L:1:tags:I:1 spacegroup="_JSON {\"number\": 186, \"setting\": 1}" unit_cell=conventional pbc="T T F"
Zn       0.00000000       0.00000000      10.00000000  F        2
Zn       0.00000000       2.60300000      10.00000000  F        2
O        0.00000000       1.99129500      10.00000000  F        2
O        0.00000000       4.59429500      10.00000000  F        2
Zn       3.70249571       0.38558338      13.90695478  T        1
Zn       0.47117283       2.98926492      13.92002792  T        1
O        2.08595454       1.66582622      13.70109021  T        1
O        2.08671203       4.26749426      14.13121749  T        1
O        1.31633811       2.54650399      19.39364452  T        0
C        1.64319552       1.73717651      18.58461105  T        0
O        1.96663141       0.92402057      17.77771160  T        0
