11
Lattice="3.249 0.0 0.0 0.0 5.206 0.0 0.0 0.0 22.81371653689564" Properties=species:S:1:pos:R:3:move_mask:L:1:tags:I:1 spacegroup="_JSON {\"number\": 186, \"setting\": 1}" unit_cell=conventional pbc="T T F"
Zn       0.00000000       0.00000000      10.00000000  F        2
Zn       0.00000000       2.60300000      10.00000000  F        2
O        0.00000000       1.99129500      10.00000000  F        2
O        0.00000000       4.59429500      10.00000000  F        2
Zn       2.87885226       0.64886851      14.25962727  T        1
Zn       1.27215349       3.24863947      13.83578941  T        1
O        2.89480966       2.37504250      13.46756821  T        1
O        1.25567956       4.97765478      14.61599357  T        1
O        1.29467576       1.36114439      20.07100134  T        0
C        1.84511084       1.63757433      19.05226070  T        0
O        2.39433004       1.91422640      18.03202990  T        0
