11
Lattice="3.249 0.0 0.0 0.0 5.206 0.0 0.0 0.0 22.81371653689564" Properties=species:S:1:pos:R:3:move_mask:L:1:tags:I:1:magmoms:R:1:forces:R:3 spacegroup="_JSON {\"number\": 186, \"setting\": 1}" unit_cell=conventional energy=294.91347773984586 free_energy=294.9134777307129 dipole="5.980088198184426 -2.867358924989838 -0.013160774877103779" magmom=0.0 pbc="T T F"
Zn       0.00000000       0.00000000      10.00000000  F        2       0.00000000      -0.00257829     435.26226866       0.00225266
Zn       0.00000000       2.60300000      10.00000000  F        2       0.00000000      -0.00237172     435.67207501      -0.04403442
O        0.00000000       1.99129500      10.00000000  F        2       0.00000000      -0.01394552    -435.73470171       0.07556905
O       -0.00000000       4.59429500      10.00000000  F        2       0.00000000      -0.00801678    -435.13259819       0.10882828
Zn       2.98938739       0.34786385      13.47406907  T        1       0.00000000      -0.00011533      -0.00336997       0.02014624
Zn       1.35173760       2.95866871      13.89244789  T        1       0.00000000       0.01655560      -0.04178589       0.01158555
O        1.36488391       1.22748004      13.13956288  T        1       0.00000000       0.00408155      -0.00142198       0.00120728
O        2.97749177       3.83227842      14.25260815  T        1       0.00000000       0.01041408       0.00494018       0.02010241
O        1.09173312       2.13953307      18.64512605  T        0       0.00000000      -0.00568305      -0.00898618      -0.01868634
C        1.59241894       1.66304859      17.69824706  T        0       0.00000000      -0.01125095       0.00284403      -0.00713529
O        2.08964814       1.18379435      16.74912545  T        0       0.00000000       0.01069911      -0.02085476       0.00592948
