11
Lattice="3.249 0.0 0.0 0.0 5.206 0.0 0.0 0.0 22.81371653689564" Properties=species:S:1:pos:R:3:move_mask:L:1:tags:I:1:magmoms:R:1:forces:R:3 spacegroup="_JSON {\"number\": 186, \"setting\": 1}" unit_cell=conventional energy=294.8920558679183 free_energy=294.8919588658298 dipole="-6.059007130269809 -4.154936970787488 0.014798656407566094" magmom=0.0 pbc="T T F"
Zn       0.00000000       0.00000000      10.00000000  F        2       0.00000000      -0.00349003     435.39173543       0.00532638
Zn       0.00000000       2.60300000      10.00000000  F        2       0.00000000       0.00424627     435.52593676      -0.02531599
O        0.00000000       1.99129500      10.00000000  F        2       0.00000000       0.01030017    -435.53237769       0.07063871
O        0.00000000       4.59429500      10.00000000  F        2       0.00000000       0.00090925    -435.31639113       0.11445442
Zn       1.90912548      -0.12927278      14.10755920  T        1       0.00000000      -0.04341807      -0.02446538       0.01537165
Zn       0.27082910       2.47212403      13.68831208  T        1       0.00000000      -0.04484163      -0.02527453      -0.03005117
O        1.89205540       1.58838408      13.33415162  T        1       0.00000000       0.04593780       0.02121471      -0.00738056
O        3.52957427       4.19494472      14.46501833  T        1       0.00000000       0.04604604       0.02115058      -0.00770551
O        1.09485594       0.19135500      18.82650531  T        0       0.00000000      -0.00618685      -0.02051855      -0.01074903
C        1.60051940       0.67315135      17.88549039  T        0       0.00000000      -0.00557418      -0.00449809      -0.00640760
O        2.10664070       1.16019459      16.94479703  T        0       0.00000000      -0.00614529       0.01103772      -0.00104991
