11
Lattice="3.249 0.0 0.0 0.0 5.206 0.0 0.0 0.0 22.81371653689564" Properties=species:S:1:pos:R:3:move_mask:L:1:tags:I:1 spacegroup="_JSON {\"number\": 186, \"setting\": 1}" unit_cell=conventional pbc="T T F"
Zn       0.00000000       0.00000000      10.00000000  F        2
Zn       0.00000000       2.60300000      10.00000000  F        2
O        0.00000000       1.99129500      10.00000000  F        2
O        0.00000000       4.59429500      10.00000000  F        2
Zn       0.86334290      -0.39328298      14.19037557  T        1
Zn       2.46157886       2.20946684      13.77336885  T        1
O        0.83981936       1.33934786      13.46357242  T        1
O        2.48884127       3.94482024      14.50120545  T        1
O        0.89585680       0.58635269      19.47580798  T        0
C        1.42430923       0.87635456      18.47015308  T        0
O        1.95255597       1.16644438      17.46379300  T        0
