10
Lattice="3.249 0.0 0.0 0.0 5.206 0.0 0.0 0.0 22.81371653689564" Properties=species:S:1:pos:R:3:move_mask:L:1:tags:I:1:magmoms:R:1:forces:R:3 spacegroup="_JSON {\"number\": 186, \"setting\": 1}" unit_cell=conventional energy=302.9915247460787 free_energy=302.991524704011 dipole="0.3324266317625151 -3.5075666167943798 -0.02792917083424496" magmom=0.0 pbc="T T F"
Zn       0.00000000       0.00000000      10.00000000  F        2       0.00000000      -0.00042676     435.47980562      -0.01432803
Zn       0.00000000       2.60300000      10.00000000  F        2       0.00000000      -0.00052136     435.41548308       0.00827216
O        0.00000000       1.99129500      10.00000000  F        2       0.00000000       0.00407508    -435.33861796       0.13725102
O       -0.00000000       4.59429500      10.00000000  F        2       0.00000000       0.00621854    -435.49908584       0.09161299
Zn       2.46031057       0.43617926      14.43499134  T        1       0.00000000      -0.00136096      -0.02253574      -0.00931227
Zn       0.84345883       3.04150668      14.03606031  T        1       0.00000000      -0.01469536       0.00136629       0.00239788
O        0.83520063       1.31360945      14.79230058  T        1       0.00000000      -0.00041823      -0.02416438       0.00202757
O        2.46666221       3.91018561      13.68881474  T        1       0.00000000      -0.00181180       0.01438948      -0.00861516
C        1.66077783       1.91420605      17.60678290  T        0       0.00000000       0.00174539       0.00578417       0.02621829
O        1.68318994       0.81610937      17.91071671  T        0       0.00000000       0.01195794      -0.00853713      -0.00042727
