12
Lattice="3.249 0.0 0.0 0.0 5.206 0.0 0.0 0.0 22.81371653689564" Properties=species:S:1:pos:R:3:move_mask:L:1:tags:I:1:magmoms:R:1:forces:R:3 spacegroup="_JSON {\"number\": 186, \"setting\": 1}" unit_cell=conventional energy=293.1610565314579 free_energy=293.1263937536493 dipole="-3.5698875783122586 -5.122740786209425 -0.18288718253648784" magmom=0.0 pbc="T T F"
Zn       0.00000000       0.00000000      10.00000000  F        2       0.00000000      -0.00171956     435.36712759       0.00815766
Zn       0.00000000       2.60300000      10.00000000  F        2       0.00000000      -0.00115198     435.30930320       0.01690660
O        0.00000000       1.99129500      10.00000000  F        2       0.00000000       0.00141086    -435.24746377       0.11008940
O       -0.00000000       4.59429500      10.00000000  F        2       0.00000000       0.00408955    -435.37245279       0.08760697
Zn       2.13435215       0.58836444      15.07345654  T        1       0.00000000      -0.01027790       0.02796524       0.01278171
Zn       0.54982172       3.30809568      14.22749258  T        1       0.00000000       0.01257544       0.00857313      -0.04630979
O        0.50536244       1.59849418      15.00498033  T        1       0.00000000      -0.01953512       0.00349181       0.01879640
O        2.17372442       4.21554360      13.97054144  T        1       0.00000000      -0.03014911      -0.00025508      -0.00129154
C        1.78415004       0.08146644      17.15223094  T        0       0.00000000      -0.00591710      -0.00605099      -0.00708030
O        1.73533686      -1.07463246      17.50042738  T        0       0.00000000       0.01606820       0.00744892      -0.00085260
O        1.57469471       1.11411921      17.96448446  T        0       0.00000000      -0.00602487       0.00766777       0.00274110
H        1.60361936       1.96770664      17.46722323  T        0       0.00000000       0.02776282      -0.02715955       0.01935943
