11
Lattice="3.249 0.0 0.0 0.0 5.206 0.0 0.0 0.0 22.81371653689564" Properties=species:S:1:pos:R:3:move_mask:L:1:tags:I:1:momenta:R:3:magmoms:R:1:forces:R:3 spacegroup="_JSON {\"number\": 186, \"setting\": 1}" unit_cell=conventional energy=325.30868931916257 free_energy=325.30868930645704 dipole="-1.3773643154153334 -0.5082738023639689 -0.03199466172585559" magmom=0.0 pbc="T T F"
Zn       0.00000000       0.00000000      10.00000000  F        2       0.00000000       0.00000000       0.00000000       0.00000000       0.00803848     444.91714351      -0.01014812
Zn       0.00000000       2.60300000      10.00000000  F        2       0.00000000       0.00000000       0.00000000       0.00000000       0.00177770     444.82375497       0.01233248
O        0.00000000       1.99129500      10.00000000  F        2       0.00000000       0.00000000       0.00000000       0.00000000       0.01377377    -444.81906861       0.44646216
O       -0.00000000       4.59429500      10.00000000  F        2       0.00000000       0.00000000       0.00000000       0.00000000      -0.00277850    -444.95248480       0.41029941
Zn       2.18275689      -0.72023454      14.45017090  T        1       1.58208798      -0.73727436      -0.64685591       0.00000000       0.08360617      -0.42165553       0.06712100
Zn       0.94850908       1.78132602      14.79848567  T        1       0.65676461      -2.39278655       0.16996267       0.00000000       0.11735291       1.48992153       0.65311738
O        0.57611312       0.12332363      14.02138245  T        1      -0.51183744       0.49736947       0.17329630       0.00000000       0.13240298       0.35507645      -0.25059201
O        2.57179325       2.84843443      15.28474734  T        1      -0.32747805      -0.19891908      -0.03001175       0.00000000      -0.32649281      -1.38591079      -0.44038976
O        3.84436476      -2.12266546      19.37772637  T        0      -1.07573056      -0.23886282      -0.54323714       0.00000000      -0.53088268       1.03207203      -0.26665080
C        3.42518621      -1.06100668      18.99764952  T        0      -0.14555233       0.50749093       1.14733525       0.00000000       0.30060413       0.18547614      -0.00374146
O        3.06014956       0.02682805      18.62986940  T        0      -0.20348774      -0.65700798       0.67843291       0.00000000       0.24612227      -1.26267561       0.55679885
