11
Lattice="3.249 0.0 0.0 0.0 5.206 0.0 0.0 0.0 22.81371653689564" Properties=species:S:1:pos:R:3:move_mask:L:1:tags:I:1 spacegroup="_JSON {\"number\": 186, \"setting\": 1}" unit_cell=conventional pbc="T T F"
Zn       0.00000000       0.00000000      10.00000000  F        2
Zn       0.00000000       2.60300000      10.00000000  F        2
O        0.00000000       1.99129500      10.00000000  F        2
O        0.00000000       4.59429500      10.00000000  F        2
Zn       1.62325609       0.83227505      13.95150843  T        1
Zn       0.03190253       3.43920025      13.52317975  T        1
O        1.65442815       2.55721703      13.18998778  T        1
O        3.24964489       5.16699240      14.28124840  T        1
O        1.21066109       1.98378084      19.36141082  T        0
C        1.64459628       2.71872748      18.55600052  T        0
O        2.07803757       3.45211935      17.74864865  T        0
