11
Lattice="3.249 0.0 0.0 0.0 5.206 0.0 0.0 0.0 22.81371653689564" Properties=species:S:1:pos:R:3:move_mask:L:1:tags:I:1 spacegroup="_JSON {\"number\": 186, \"setting\": 1}" unit_cell=conventional pbc="T T F"
Zn       0.00000000       0.00000000      10.00000000  F        2
Zn       0.00000000       2.60300000      10.00000000  F        2
O        0.00000000       1.99129500      10.00000000  F        2
O        0.00000000       4.59429500      10.00000000  F        2
Zn       1.25270609       0.90172281      14.49164531  T        1
Zn       0.33445328       3.62819174      13.22615214  T        1
O        1.93472255       2.77060925      12.93513011  T        1
O        2.88642271       5.22727061      14.47767739  T        1
O        1.62116720       2.09492868      19.40938246  T        0
C        1.62254570       2.98499399      18.64578828  T        0
O        1.62407252       3.87154308      17.87635952  T        0
