11
Lattice="3.249 0.0 0.0 0.0 5.206 0.0 0.0 0.0 22.81371653689564" Properties=species:S:1:pos:R:3:move_mask:L:1:tags:I:1:magmoms:R:1:forces:R:3 spacegroup="_JSON {\"number\": 186, \"setting\": 1}" unit_cell=conventional energy=294.91062392919554 free_energy=294.91052620330856 dipole="-3.975031870895235 0.5127231542929429 0.004528711431243624" magmom=0.0 pbc="T T F"
Zn       0.00000000       0.00000000      10.00000000  F        2       0.00000000      -0.00149900     435.35974713       0.00383825
Zn       0.00000000       2.60300000      10.00000000  F        2       0.00000000       0.00170416     435.55503237      -0.03128019
O        0.00000000       1.99129500      10.00000000  F        2       0.00000000       0.00456236    -435.58328169       0.06481696
O        0.00000000       4.59429500      10.00000000  F        2       0.00000000      -0.00013270    -435.26525853       0.09704460
Zn       1.73861218       0.09555094      14.10752262  T        1       0.00000000      -0.00014330      -0.00135191       0.00030775
Zn       0.10470539       2.69860888      13.67081439  T        1       0.00000000      -0.00043704      -0.00211911      -0.00094774
O        1.72938783       1.81535512      13.33004588  T        1       0.00000000      -0.00048136      -0.00122265      -0.00060336
O        3.36274528       4.41927020      14.45607604  T        1       0.00000000      -0.00012288      -0.00328868       0.00113926
O        1.18236442       1.94453921      19.04594536  T        0       0.00000000       0.00570111      -0.00042933      -0.03084737
C        1.70696355       1.85461368      18.00134981  T        0       0.00000000      -0.01147922      -0.01883388       0.00691682
O        2.23128765       1.76046145      16.95593474  T        0       0.00000000       0.00687092      -0.04412107      -0.03329419
