11
Lattice="3.249 0.0 0.0 0.0 5.206 0.0 0.0 0.0 22.81371653689564" Properties=species:S:1:pos:R:3:move_mask:L:1:tags:I:1:magmoms:R:1:forces:R:3 spacegroup="_JSON {\"number\": 186, \"setting\": 1}" unit_cell=conventional energy=295.23771286994395 free_energy=295.2376434590404 dipole="-3.6822906831171287 11.669106860294828 0.1384259693262627" magmom=0.0 pbc="T T F"
Zn       0.00000000       0.00000000      10.00000000  F        2       0.00000000      -0.00007798     435.37910815       0.00816769
Zn       0.00000000       2.60300000      10.00000000  F        2       0.00000000       0.00110049     435.49193197       0.01427277
O        0.00000000       1.99129500      10.00000000  F        2       0.00000000      -0.00128580    -435.47055587       0.09170112
O       -0.00000000       4.59429500      10.00000000  F        2       0.00000000      -0.00156534    -435.34803109       0.09823196
Zn       0.54346576       2.42056537      15.46742696  T        1       0.00000000      -0.01739415      -1.60177469      -0.36105232
Zn       2.19277259       4.80371945      14.75250525  T        1       0.00000000      -0.10827322       0.36200104      -0.32213922
O        0.55193522       3.83988200      14.22271012  T        1       0.00000000       0.08686012       0.87888440       0.85089154
O        2.16390180       6.50141556      15.71722753  T        1       0.00000000       0.05023750       0.36124605      -0.20041313
O        1.74872752       4.05046020      17.60080791  T        0       0.00000000       0.01114620       0.04223908       0.18712945
C        1.32709788       5.03644053      18.09072269  T        0       0.00000000      -0.02078824       0.02867254      -0.17571246
O        0.88065405       5.99179928      18.59275477  T        0       0.00000000      -0.00290716      -0.02541074       0.21725391
