11
Lattice="3.249 0.0 0.0 0.0 5.206 0.0 0.0 0.0 22.81371653689564" Properties=species:S:1:pos:R:3:move_mask:L:1:tags:I:1 spacegroup="_JSON {\"number\": 186, \"setting\": 1}" unit_cell=conventional pbc="T T F"
Zn       0.00000000       0.00000000      10.00000000  F        2
Zn       0.00000000       2.60300000      10.00000000  F        2
O        0.00000000       1.99129500      10.00000000  F        2
O        0.00000000       4.59429500      10.00000000  F        2
Zn       1.65403283       0.07872598      13.72790462  T        1
Zn       1.88041784       2.69294176      13.71071596  T        1
O        1.72825459       1.37820415      12.52920786  T        1
O        1.72109834       3.97767299      14.92171183  T        1
O        1.06220094       2.08572875      17.56656550  T        0
C        1.63502632       1.04442368      17.48236466  T        0
O        2.20724145       0.00825008      17.36923384  T        0
