11
Lattice="3.249 0.0 0.0 0.0 5.206 0.0 0.0 0.0 22.81371653689564" Properties=species:S:1:pos:R:3:tags:I:1 spacegroup="_JSON {\"number\": 186, \"setting\": 1}" unit_cell=conventional pbc="T T F"
Zn       0.00000000       0.00000000      10.00000000        2
Zn       0.00000000       2.60300000      10.00000000        2
O        0.00000000       1.99129500      10.00000000        2
O        0.00000000       4.59429500      10.00000000        2
Zn       2.07300902       1.32578167      14.19459870        1
Zn       0.96306996       3.93772264      14.48246261        1
O        0.47122936       2.22927428      13.88589149        1
O        2.56053334       4.83397570      14.84402822        1
O        1.40467738       2.27870064      16.90950473        0
C        1.43518523       2.62889131      18.04826099        0
O        1.46382721       2.97642767      19.18379386        0
