10
Lattice="3.249 0.0 0.0 0.0 5.206 0.0 0.0 0.0 22.81371653689564" Properties=species:S:1:pos:R:3:move_mask:L:1:tags:I:1:magmoms:R:1:forces:R:3 spacegroup="_JSON {\"number\": 186, \"setting\": 1}" unit_cell=conventional energy=302.99101854342445 free_energy=302.9910184673653 dipole="-1.1509404762450697 2.348965755942758 -0.024964504857697068" magmom=0.0 pbc="T T F"
Zn       0.00000000       0.00000000      10.00000000  F        2       0.00000000      -0.00026231     435.49399133      -0.01535871
Zn       0.00000000       2.60300000      10.00000000  F        2       0.00000000      -0.00093527     435.39675433       0.00932122
O        0.00000000       1.99129500      10.00000000  F        2       0.00000000       0.00289123    -435.31683190       0.13406685
O       -0.00000000       4.59429500      10.00000000  F        2       0.00000000       0.00761202    -435.51694710       0.09205574
Zn       2.33303971       0.65496688      14.46465749  T        1       0.00000000      -0.02959316      -0.00919375      -0.01294607
Zn       0.70434891       3.25902268      14.05700525  T        1       0.00000000      -0.02614513      -0.03791715      -0.00882211
O        0.70615990       1.52967821      14.82046906  T        1       0.00000000       0.02634513       0.02331846      -0.00236987
O        2.32701772       4.13074923      13.70527638  T        1       0.00000000       0.02193574       0.00246041       0.00290763
C        1.75465042      -0.07110251      18.54963719  T        0       0.00000000       0.00435062       0.01167220       0.02627328
O        1.90772739      -0.79895018      17.68717033  T        0       0.00000000      -0.00641866       0.01528263      -0.03063077
