11
Lattice="3.249 0.0 0.0 0.0 5.206 0.0 0.0 0.0 22.81371653689564" Properties=species:S:1:pos:R:3:tags:I:1:magmoms:R:1:forces:R:3 spacegroup="_JSON {\"number\": 186, \"setting\": 1}" unit_cell=conventional energy=294.90371647232513 free_energy=294.90371646257 dipole="5.2652263586212165 -1.9028148347929899 -0.008062386082206961" magmom=0.0 pbc="T T F"
Zn       0.00000000       0.00000000      10.00000000        2       0.00000000      -0.00139420     435.30449323       0.00544453
Zn       0.00000000       2.60300000      10.00000000        2       0.00000000      -0.00002595     435.60425267      -0.02569425
O        0.00000000       1.99129500      10.00000000        2       0.00000000      -0.00310137    -435.65564100       0.10323700
O       -0.00000000       4.59429500      10.00000000        2       0.00000000      -0.00529051    -435.20315744       0.09965981
Zn       3.09646350       0.20975474      13.59319260        1       0.00000000      -0.01007866      -0.01128114       0.00364830
Zn       1.44955908       2.81578244      14.00648601        1       0.00000000       0.02189590      -0.01478189       0.00303396
O        1.47097089       1.08403211      13.27826665        1       0.00000000      -0.00309847      -0.01358746       0.01136308
O        3.07592931       3.68210819      14.33088475        1       0.00000000       0.00573950       0.02439921       0.01791208
O        1.07865639       2.10768283      19.01238901        0       0.00000000      -0.00839203       0.04628531       0.00984288
C        1.58988146       1.63702062      18.06823532        0       0.00000000       0.01271825      -0.01031515      -0.04033250
O        2.09964475       1.16415210      17.12261640        0       0.00000000      -0.00731065      -0.00379768       0.00199355
