11
Lattice="3.249 0.0 0.0 0.0 5.206 0.0 0.0 0.0 22.81371653689564" Properties=species:S:1:pos:R:3:tags:I:1 spacegroup="_JSON {\"number\": 186, \"setting\": 1}" unit_cell=conventional pbc="T T F"
Zn       0.00000000       0.00000000      10.00000000        2
Zn       0.00000000       2.60300000      10.00000000        2
O        0.00000000       1.99129500      10.00000000        2
O        0.00000000       4.59429500      10.00000000        2
Zn       2.77137746       0.22485115      13.71598587        1
Zn       1.02099910       2.82747696      14.17870550        1
O        1.15339426       1.13401961      13.28906728        1
O        2.65290811       3.72663939      14.58446560        1
O        1.04940085       1.83604517      17.76769805        0
C        1.60384993       0.78339985      17.79466427        0
O        2.16292315      -0.26702348      17.81514461        0
