11
Lattice="3.249 0.0 0.0 0.0 5.206 0.0 0.0 0.0 22.81371653689564" Properties=species:S:1:pos:R:3:tags:I:1:magmoms:R:1:forces:R:3 spacegroup="_JSON {\"number\": 186, \"setting\": 1}" unit_cell=conventional energy=326.0846170870382 free_energy=326.0846157591691 dipole="-0.9744197437575478 2.594199542214127 0.09797554151634551" magmom=0.0 pbc="T T F"
Zn       0.00000000       0.00000000      10.00000000        2       0.00000000       0.00028961     444.74418809       0.01680072
Zn       0.00000000       2.60300000      10.00000000        2       0.00000000       0.00216424     445.06805133      -0.01599106
O        0.00000000       1.99129500      10.00000000        2       0.00000000       0.02625985    -445.16417619       0.38761591
O        0.00000000       4.59429500      10.00000000        2       0.00000000       0.00359319    -444.65384658       0.46587898
Zn       2.17002867       0.04194270      14.06577554        1       0.00000000       0.15726805       0.09914012      -0.13793797
Zn       0.68774282       2.68366426      14.18547385        1       0.00000000      -0.01749440       0.01763878      -0.13306250
O        1.86420333       1.57610508      13.23789428        1       0.00000000      -0.06334132      -0.07951589       0.08680582
O        2.51360276       3.70173311      14.89084166        1       0.00000000      -0.06366141       0.02986076      -0.14855438
O        1.05137344       1.45561494      17.26634498        0       0.00000000       0.02221761       0.00861998       0.18648688
C        1.59809849       0.53671023      17.79385541        0       0.00000000       0.01862296      -0.01295515      -0.00948880
O        2.15085067      -0.37247598      18.31927431        0       0.00000000       0.03060324      -0.05614606      -0.16553157
