11
Lattice="3.249 0.0 0.0 0.0 5.206 0.0 0.0 0.0 22.81371653689564" Properties=species:S:1:pos:R:3:move_mask:L:1:tags:I:1 spacegroup="_JSON {\"number\": 186, \"setting\": 1}" unit_cell=conventional pbc="T T F"
Zn       0.00000000       0.00000000      10.00000000  F        2
Zn       0.00000000       2.60300000      10.00000000  F        2
O        0.00000000       1.99129500      10.00000000  F        2
O        0.00000000       4.59429500      10.00000000  F        2
Zn       1.22775488       0.65143650      13.88878875  T        1
Zn       2.84030018       3.26672049      13.93489991  T        1
O        1.52062213       2.20671093      13.12854762  T        1
O        0.97351558       4.30210378      14.67600150  T        1
O        1.13347779       0.75519013      18.86089890  T        0
C        1.65210490       1.44437640      18.06796967  T        0
O        2.17000530       2.13801360      17.27546236  T        0
