11
Lattice="3.249 0.0 0.0 0.0 5.206 0.0 0.0 0.0 22.81371653689564" Properties=species:S:1:pos:R:3:move_mask:L:1:tags:I:1 spacegroup="_JSON {\"number\": 186, \"setting\": 1}" unit_cell=conventional pbc="T T F"
Zn       0.00000000       0.00000000      10.00000000  F        2
Zn       0.00000000       2.60300000      10.00000000  F        2
O        0.00000000       1.99129500      10.00000000  F        2
O        0.00000000       4.59429500      10.00000000  F        2
Zn       2.33338771       0.78340667      14.13774337  T        1
Zn       0.69774667       3.39041092      13.76913842  T        1
O        2.32213535       2.52419561      13.43259954  T        1
O        0.70817186       5.13211012      14.48300667  T        1
O        1.09777134       1.51175617      19.21418097  T        0
C        1.62787358       2.19970011      18.42671449  T        0
O        2.15756204       2.88961305      17.63902879  T        0
