11
Lattice="3.249 0.0 0.0 0.0 5.206 0.0 0.0 0.0 22.81371653689564" Properties=species:S:1:pos:R:3:move_mask:L:1:tags:I:1 spacegroup="_JSON {\"number\": 186, \"setting\": 1}" unit_cell=conventional pbc="T T F"
Zn       0.00000000       0.00000000      10.00000000  F        2
Zn       0.00000000       2.60300000      10.00000000  F        2
O        0.00000000       1.99129500      10.00000000  F        2
O        0.00000000       4.59429500      10.00000000  F        2
Zn       1.63683113       0.87229279      15.73309766  T        1
Zn       1.61998838       3.81837342      13.05811078  T        1
O        1.62516443       2.71763492      11.65542837  T        1
O        1.61093613       5.15954843      14.19062468  T        1
O        1.62451392       2.08964584      19.41664919  T        0
C        1.62454498       2.97499922      18.64793346  T        0
O        1.62450036       3.87325861      17.89183558  T        0
