11
Lattice="3.249 0.0 0.0 0.0 5.206 0.0 0.0 0.0 22.81371653689564" Properties=species:S:1:pos:R:3:move_mask:L:1:tags:I:1:magmoms:R:1:forces:R:3 spacegroup="_JSON {\"number\": 186, \"setting\": 1}" unit_cell=conventional energy=295.8929787361713 free_energy=295.89244033134645 dipole="2.5342835682456113 -8.048399018433148 0.019702476555038862" magmom=0.0 pbc="T T F"
Zn       0.00000000       0.00000000      10.00000000  F        2       0.00000000       0.00025303     435.22772783       0.02089183
Zn       0.00000000       2.60300000      10.00000000  F        2       0.00000000      -0.00163971     435.66093736      -0.03494427
O        0.00000000       1.99129500      10.00000000  F        2       0.00000000      -0.00431315    -435.75062142       0.06352369
O        0.00000000       4.59429500      10.00000000  F        2       0.00000000      -0.00139872    -435.08342023       0.15303186
Zn       1.23261129       0.47861864      14.05886077  T        1       0.00000000       0.00314516       0.01478243       0.00603351
Zn       2.86338857       3.07731542      14.08561946  T        1       0.00000000       0.00589968       0.01200607       0.00541292
O        1.49595330       2.04715971      13.30366463  T        1       0.00000000      -0.00088391       0.01725411       0.00742154
O        0.96302071       4.13905844      14.85826081  T        1       0.00000000      -0.00027472       0.01789857       0.00859240
O        1.15440532       0.07777316      18.64451893  T        0       0.00000000      -0.00874852      -0.03431775       0.00847423
C        1.65289332       0.80179493      17.87131367  T        0       0.00000000       0.02161111       0.00797291      -0.03816864
O        2.15173547       1.53784227      17.10320117  T        0       0.00000000      -0.00795100      -0.03743053       0.00898380
