12
Lattice="3.249 0.0 0.0 0.0 5.206 0.0 0.0 0.0 22.81371653689564" Properties=species:S:1:pos:R:3:move_mask:L:1:tags:I:1:magmoms:R:1:forces:R:3 spacegroup="_JSON {\"number\": 186, \"setting\": 1}" unit_cell=conventional energy=293.3645316232123 free_energy=293.3298701765065 dipole="-6.206227474546484 0.03526376541035459 -0.07907215478105764" magmom=0.0 pbc="T T F"
Zn       0.00000000       0.00000000      10.00000000  F        2       0.00000000      -0.00029240     435.31728943       0.02204541
Zn       0.00000000       2.60300000      10.00000000  F        2       0.00000000      -0.00024606     435.33975537       0.02165646
O        0.00000000       1.99129500      10.00000000  F        2       0.00000000       0.00063030    -435.30159230       0.09288372
O       -0.00000000       4.59429500      10.00000000  F        2       0.00000000       0.00001013    -435.30080843       0.08659383
Zn       1.85388146       0.57575385      15.64479535  T        1       0.00000000      -0.00747022      -0.00697700      -0.00210575
Zn       0.24944625       3.25557350      14.73036211  T        1       0.00000000       0.00494825      -0.00294321       0.00231012
O        0.22891335       1.46313149      15.24003422  T        1       0.00000000      -0.00262222      -0.01717430      -0.01952691
O        1.87326707       4.12755286      14.57271413  T        1       0.00000000       0.00307943      -0.00933309      -0.00345201
C        1.79525496       5.12473884      17.63889394  T        0       0.00000000       0.02261688      -0.00700647       0.03074365
O        2.03877213       5.79386348      18.61774306  T        0       0.00000000      -0.00202558      -0.00737675      -0.03104080
O        1.47117426       3.81020622      17.67066633  T        0       0.00000000      -0.00746670       0.00924107       0.02929594
H        1.49151942       3.48310672      18.60520719  T        0       0.00000000      -0.00301506       0.01742802      -0.01333278
