11
Lattice="3.249 0.0 0.0 0.0 5.206 0.0 0.0 0.0 22.81371653689564" Properties=species:S:1:pos:R:3:move_mask:L:1:tags:I:1:magmoms:R:1:forces:R:3 spacegroup="_JSON {\"number\": 186, \"setting\": 1}" unit_cell=conventional energy=294.91069003266983 free_energy=294.91059249341964 dipole="-3.999826388238295 0.6130514149522761 0.0053479498689156715" magmom=0.0 pbc="T T F"
Zn       0.00000000       0.00000000      10.00000000  F        2       0.00000000      -0.00149806     435.36105484       0.00355160
Zn       0.00000000       2.60300000      10.00000000  F        2       0.00000000       0.00171748     435.55509028      -0.03139736
O        0.00000000       1.99129500      10.00000000  F        2       0.00000000       0.00461090    -435.58197798       0.06496820
O        0.00000000       4.59429500      10.00000000  F        2       0.00000000      -0.00016573    -435.26732421       0.09804284
Zn       1.73954929       0.08877034      14.10733238  T        1       0.00000000       0.00001721      -0.00202779       0.00128884
Zn       0.10570846       2.69198033      13.67045571  T        1       0.00000000      -0.00045498      -0.00310487       0.00023785
O        1.73038179       1.80806550      13.32954977  T        1       0.00000000      -0.00031260      -0.00155754       0.00071470
O        3.36368858       4.41297012      14.45574763  T        1       0.00000000      -0.00001567      -0.00473511       0.00098283
O        1.18405612       1.94466461      19.04693840  T        0       0.00000000      -0.01377521       0.00288076       0.00740078
C        1.70846220       1.85523987      18.00275364  T        0       0.00000000       0.02922523      -0.02708726      -0.07798965
O        2.23304156       1.76141873      16.95681165  T        0       0.00000000      -0.01519523      -0.04158052       0.01011766
