11
Lattice="3.249 0.0 0.0 0.0 5.206 0.0 0.0 0.0 22.81371653689564" Properties=species:S:1:pos:R:3:move_mask:L:1:tags:I:1 spacegroup="_JSON {\"number\": 186, \"setting\": 1}" unit_cell=conventional pbc="T T F"
Zn       0.00000000       0.00000000      10.00000000  F        2
Zn       0.00000000       2.60300000      10.00000000  F        2
O        0.00000000       1.99129500      10.00000000  F        2
O        0.00000000       4.59429500      10.00000000  F        2
Zn       1.62655723       0.87721683      15.72765860  T        1
Zn       1.62599875       3.81871981      13.05819578  T        1
O        1.62505059       2.71925345      11.65611081  T        1
O        1.62110087       5.15501563      14.19375099  T        1
O        1.62449027       2.08989648      19.41557982  T        0
C        1.62450763       2.97587927      18.64750390  T        0
O        1.62451687       3.87503496      17.89255098  T        0
