11
Lattice="3.249 0.0 0.0 0.0 5.206 0.0 0.0 0.0 22.81371653689564" Properties=species:S:1:pos:R:3:move_mask:L:1:tags:I:1 spacegroup="_JSON {\"number\": 186, \"setting\": 1}" unit_cell=conventional pbc="T T F"
Zn       0.00000000       0.00000000      10.00000000  F        2
Zn       0.00000000       2.60300000      10.00000000  F        2
O        0.00000000       1.99129500      10.00000000  F        2
O        0.00000000       4.59429500      10.00000000  F        2
Zn       1.27413856       0.91179620      14.50973034  T        1
Zn       0.31807350       3.66120430      13.20769796  T        1
O        1.92065835       2.83365541      12.91111705  T        1
O        2.90547753       5.24869764      14.46982743  T        1
O        1.61278586       2.09376577      19.40944081  T        0
C        1.62274821       2.98408552      18.64564134  T        0
O        1.63284009       3.87026343      17.87644096  T        0
