11
Lattice="3.249 0.0 0.0 0.0 5.206 0.0 0.0 0.0 22.81371653689564" Properties=species:S:1:pos:R:3:move_mask:L:1:tags:I:1 spacegroup="_JSON {\"number\": 186, \"setting\": 1}" unit_cell=conventional pbc="T T F"
Zn       0.00000000       0.00000000      10.00000000  F        2
Zn       0.00000000       2.60300000      10.00000000  F        2
O        0.00000000       1.99129500      10.00000000  F        2
O        0.00000000       4.59429500      10.00000000  F        2
Zn       0.90864492       0.64112911      15.29289350  T        1
Zn       0.80556626       3.68169784      12.94711212  T        1
O        2.30276409       3.04117817      12.23651963  T        1
O        2.39470764       5.23060687      14.50111238  T        1
O        1.62541779       2.08892874      19.41107039  T        0
C        1.62350495       2.98081326      18.65002830  T        0
O        1.62222178       3.87369146      17.88716005  T        0
