10
Lattice="3.249 0.0 0.0 0.0 5.206 0.0 0.0 0.0 22.81371653689564" Properties=species:S:1:pos:R:3:move_mask:L:1:tags:I:1:magmoms:R:1:forces:R:3 spacegroup="_JSON {\"number\": 186, \"setting\": 1}" unit_cell=conventional energy=302.95559574417734 free_energy=302.9555956683577 dipole="-2.4310122840531885 -5.829079016764516 0.030255062039035455" magmom=0.0 pbc="T T F"
Zn       0.00000000       0.00000000      10.00000000  F        2       0.00000000      -0.00055126     435.44724036      -0.00282891
Zn       0.00000000       2.60300000      10.00000000  F        2       0.00000000      -0.00080536     435.42903956       0.00929212
O        0.00000000       1.99129500      10.00000000  F        2       0.00000000       0.00189043    -435.37170177       0.11373226
O       -0.00000000       4.59429500      10.00000000  F        2       0.00000000       0.00272977    -435.45363139       0.09926985
Zn       2.25993398       0.51526261      14.85966414  T        1       0.00000000      -0.00920426       0.01795433       0.01164384
Zn       0.64767612       3.12743736      14.41701397  T        1       0.00000000       0.00551096       0.00505964       0.01114601
O        0.63548431       1.40497671      15.19993504  T        1       0.00000000      -0.00184950      -0.00882539      -0.00952658
O        2.27223798       4.00920171      14.06956221  T        1       0.00000000      -0.02118309      -0.01695419       0.00245870
C        1.24878082       5.26611366      17.96834024  T        0       0.00000000       0.00451027       0.03523165       0.01651755
O        1.01986789       5.98671485      18.82004480  T        0       0.00000000       0.00902349      -0.03449990      -0.02685755
