8
Lattice="3.249 0.0 0.0 0.0 5.206 0.0 0.0 0.0 22.81371653689564" Properties=species:S:1:pos:R:3:move_mask:L:1:tags:I:1:magmoms:R:1:forces:R:3 spacegroup="_JSON {\"number\": 186, \"setting\": 1}" unit_cell=conventional energy=317.66938264333845 free_energy=317.6693825603435 dipole="-1.609636111468333 -2.2904695183243624 -0.0005662715303204591" magmom=0.0 pbc="T T F"
Zn       0.00000000       0.00000000      10.00000000  F        2       0.00000000      -0.00052888     435.42655944      -0.00144260
Zn       0.00000000       2.60300000      10.00000000  F        2       0.00000000      -0.00045535     435.44495671       0.00444925
O        0.00000000       1.99129500      10.00000000  F        2       0.00000000       0.00130454    -435.40047281       0.11202739
O       -0.00000000       4.59429500      10.00000000  F        2       0.00000000       0.00176302    -435.42026459       0.09702296
Zn       2.31858033       0.52497530      15.13769715  T        1       0.00000000      -0.01634299       0.03935135      -0.01904131
Zn       0.65129562       3.12975047      14.70110526  T        1       0.00000000       0.04009939      -0.01100057       0.01604702
O        0.69194577       1.39774988      15.44149953  T        1       0.00000000      -0.01962669       0.00551069      -0.00291596
O        2.27950821       4.00642981      14.39327579  T        1       0.00000000      -0.00690799      -0.03164746       0.00372450
