11
Lattice="3.249 0.0 0.0 0.0 5.206 0.0 0.0 0.0 22.81371653689564" Properties=species:S:1:pos:R:3:tags:I:1 spacegroup="_JSON {\"number\": 186, \"setting\": 1}" unit_cell=conventional pbc="T T F"
Zn       0.00000000       0.00000000      10.00000000        2
Zn       0.00000000       2.60300000      10.00000000        2
O        0.00000000       1.99129500      10.00000000        2
O        0.00000000       4.59429500      10.00000000        2
Zn       2.91778357       0.19470749      13.69815145        1
Zn       1.26024869       2.80497582      14.13325213        1
O        1.29254558       1.09374440      13.26540543        1
O        2.88561946       3.68912685      14.57209320        1
O        1.05711890       2.14791541      18.48717545        0
C        1.60404996       1.26382493      17.91131506        0
O        2.15141495       0.38021335      17.32916540        0
