11
Lattice="3.249 0.0 0.0 0.0 5.206 0.0 0.0 0.0 22.81371653689564" Properties=species:S:1:pos:R:3:move_mask:L:1:tags:I:1 spacegroup="_JSON {\"number\": 186, \"setting\": 1}" unit_cell=conventional pbc="T T F"
Zn       0.00000000       0.00000000      10.00000000  F        2
Zn       0.00000000       2.60300000      10.00000000  F        2
O        0.00000000       1.99129500      10.00000000  F        2
O        0.00000000       4.59429500      10.00000000  F        2
Zn      -0.07876375       0.46615560      13.83018067  T        1
Zn       1.55746897       3.07218284      14.23752178  T        1
O        1.53895399       1.35013219      13.47940233  T        1
O        3.17428743       3.95152190      14.61252118  T        1
O        0.77154457       0.43803201      18.86757555  T        0
C        1.33301150       0.68635412      17.87067682  T        0
O        1.89516179       0.94004528      16.87417159  T        0
