11
Lattice="3.249 0.0 0.0 0.0 5.206 0.0 0.0 0.0 22.81371653689564" Properties=species:S:1:pos:R:3:move_mask:L:1:tags:I:1 spacegroup="_JSON {\"number\": 186, \"setting\": 1}" unit_cell=conventional pbc="T T F"
Zn       0.00000000       0.00000000      10.00000000  F        2
Zn       0.00000000       2.60300000      10.00000000  F        2
O        0.00000000       1.99129500      10.00000000  F        2
O        0.00000000       4.59429500      10.00000000  F        2
Zn       0.90447780      -0.31121716      14.28253123  T        1
Zn       2.46957274       2.29312672      13.85317400  T        1
O        0.84924632       1.41112196      13.51605487  T        1
O        2.52974631       4.01890292      14.62692419  T        1
O        1.08296297       0.61160155      19.30195911  T        0
C        1.61019704       0.89168863      18.29258257  T        0
O        2.13810719       1.17147197      17.28267875  T        0
