11
Lattice="3.249 0.0 0.0 0.0 5.206 0.0 0.0 0.0 22.81371653689564" Properties=species:S:1:pos:R:3:move_mask:L:1:tags:I:1 spacegroup="_JSON {\"number\": 186, \"setting\": 1}" unit_cell=conventional pbc="T T F"
Zn       0.00000000       0.00000000      10.00000000  F        2
Zn       0.00000000       2.60300000      10.00000000  F        2
O        0.00000000       1.99129500      10.00000000  F        2
O        0.00000000       4.59429500      10.00000000  F        2
Zn       0.62339938       0.42165206      14.06804174  T        1
Zn       2.25668707       3.03693936      13.74403886  T        1
O        0.63579520       2.17323214      13.39858966  T        1
O        2.25219122       4.78268560      14.43509585  T        1
O        0.33622067       1.73396247      18.04584753  T        0
C        0.85849968       0.72353045      17.75529439  T        0
O        1.38087986      -0.28368438      17.46167223  T        0
